15144
Lattice="33.55202232 0.0 0.0 0.0 33.55202232 0.0 0.0 0.0 121.772066705426" Properties=species:S:1:pos:R:3 pbc="T T T"
H       16.54123996      27.04141587      62.79108310
H       15.42202570      28.18064618      62.84795183
H        6.96935604      29.18362672     102.68514630
H        5.57829643      29.66811474     103.31571525
H        5.68808462      32.23628917      71.20483318
H        4.12311563      32.28226261      71.03925911
H       12.67249225       2.16604760      63.95730434
H       11.72130780       3.43588605      64.04655483
H        9.49437930       3.45715423     108.81316027
H       10.73747278       4.29504638     109.19930899
H       26.97970396      19.57235893      69.05001929
H       25.46772582      19.34461946      68.85101305
H       28.79706824      11.59678069      82.22547958
H       28.28271369      11.77682188      83.72546806
H       19.54838412       4.27150376     111.71246624
H       20.60829927       5.17081439     112.43260389
H       21.36592964       8.96344725      90.72329735
H       21.75210378      10.14374580      89.75986897
H        4.71428215       5.91760681      56.21590079
H        5.21995590       7.28954796      55.59493745
H       25.47131664       1.88858475      64.47850465
H       24.08755933       2.45513391      64.80150844
H        0.62045763      16.70355987      73.05463558
H        2.00206966      16.03216079      72.88719531
H       18.03546625      25.37982419      71.71832510
H       17.03168744      26.36412236      71.17074856
H        1.89245622      24.43767877      96.87310279
H        1.73282105      25.46702122      97.95746762
H        5.96193697      32.81877303      93.21357124
H        4.76277955      33.60988109      92.90439906
H       12.69700368      18.65541843     112.81529861
H       12.20356559      19.35322534     111.52999516
H        1.74178427      30.53633629     110.67904136
H        1.11337754      31.36781796     111.77661351
H        1.55577442      30.69576174     104.49637110
H        2.36605632      29.39050208     104.51709082
H        9.74929525      15.99380128     100.81538149
H       10.58118482      16.18136553      99.48795869
H       19.45214707      24.36964838     111.65983094
H       19.75781101      24.28912128     113.22586011
H       32.71731659      23.64241453      76.32448382
H       33.80893504      24.79632479      76.54441947
H        6.70883041      23.13694848     108.59932060
H        6.76685253      24.15386761     107.48925751
H        2.29614715       4.62873653      64.84978712
H        3.40592189       4.94098154      65.93606941
H       28.90984056       0.89723841      96.21276312
H       28.17148494      -0.14879358      95.36030336
H        1.83685566      19.59984896      79.72023330
H        1.88601864      20.72116833      80.73809079
H       16.62838804      33.50324713      55.16628303
H       16.57929644      31.98794632      55.42098698
H        9.98618262      16.77166531      75.51954794
H        9.45908138      16.95472678      73.99913717
H        0.35102920      19.96016787      68.17161251
H        0.15811650      21.21899841      68.98962511
H       26.16977241       5.36868043      98.21066037
H       26.56784671       6.77635428      98.70773489
H       27.13574455      11.24412911      91.82582330
H       25.87842412      11.49038670      92.66435639
H        5.79976715       9.18306033      87.40098206
H        5.34596567       7.82308341      86.78543899
H        8.79416537       9.94718981     117.05120776
H        9.88175528      10.71364048     116.28268854
H       32.58506961       1.56394641      81.46751575
H       32.08380733       0.68227822      80.26434118
H        8.31854153      23.24205756      75.14104460
H        9.46713320      24.25195402      74.70286948
H        1.19572752      29.59709012     100.81987132
H        0.73437349      28.93966315      99.47081851
H       23.40330791       0.89281739      94.19396086
H       23.97424126       2.20673572      94.73957590
H       20.15024207      15.77916805      82.56858406
H       21.15283947      16.41041847      81.61982136
H       13.41750644       4.16209698     101.78398688
H       13.51571662       3.35450756     103.08848711
H       28.95919796      20.58716907      73.41699596
H       28.53450569      21.99427747      74.00243523
H       33.89771692      18.75278852      57.24207462
H       32.58740911      18.99009856      58.08103989
H       10.41775635       4.79152819     106.25223793
H       11.13472353       3.75174947     105.36615139
H        9.19692371      11.99469785     107.57271506
H        9.76992662      10.80390004     108.41878380
H       28.01578679       6.18998879      54.33111453
H       26.80567792       5.34001437      54.02964694
H       21.21553261      23.25545565      68.00804085
H       21.09082984      24.28302337      69.07308788
H       12.18328581       4.61849791      75.38548489
H       13.28756188       4.75162339      76.47328605
H       16.82745579      20.55723784      58.45444482
H       16.60052741      19.21429133      57.63281068
H       29.80814026       4.42779040     106.85004034
H       30.01731744       5.56853050     105.85782251
H       17.87360096      17.17360014     105.63285878
H       18.65612615      16.51399586     104.46360377
H       17.92447374      22.90297521     106.73750828
H       16.63326979      23.73237872     106.84810077
H       14.59393173      13.12759984     102.50589170
H       13.48200679      12.63313013     101.58385138
H       10.21683577       7.91409286     106.70462865
H       11.69932974       7.89316628     107.09383439
H        1.57448974       9.16172566      85.65139850
H        2.61232153       9.96097935      84.81184110
H       17.32784059       9.82121649      77.75139008
H       15.99488183       9.01681496      77.85888125
H        5.80719517      11.52470861      60.05059690
H        4.59590242      10.99477902      60.76736697
H       27.09135580      30.28987488      61.40766433
H       25.57317806      30.63522214      61.19634303
H       26.52349343      17.70343112      61.25657773
H       26.12588982      19.07478389      60.59263945
H       15.65674915      28.90161820      84.29165833
H       14.25745019      28.77799918      83.66633291
H       32.75176319      18.05285808      88.15269328
H       31.45849575      18.32076941      88.94118047
H       16.28327879      11.18338163      88.68227595
H       16.01973318      10.05546074      89.61356787
H       10.62089732      14.77005213     116.30383854
H       11.76907823      13.70662859     116.20433449
H       11.89076790      15.37380862      67.30978235
H       11.07696950      15.48182229      68.55230340
H       20.94796976      32.34133433      61.18536894
H       20.14214030      33.54160961      61.63599500
H        5.74867372      26.02013488      70.24705737
H        6.87755513      25.10141115      70.76189300
H       30.73018494      16.53204433      93.03788675
H       31.66420956      16.69085662      91.79805661
H        5.89835319       3.31059742     116.80227235
H        7.35311213       3.09384402     116.29466085
H       10.81631044       9.07113824     113.37662809
H        9.33999573       8.61333061     113.19844527
H       10.95609265      29.36726893     118.67466894
H       11.58374948      29.10229361     117.27173309
H        0.16414125      32.65352199      63.06353155
H        0.09124133      31.42235921      64.01449625
H       15.64414614       9.53977664     115.35677636
H       15.83266791      10.13415969     113.92231302
H       10.49869625      12.82184958      71.79312731
H       10.42779081      13.38259492      73.24241406
H        5.39125938      12.76698576      70.52614387
H        5.76605572      13.17511005      72.00040135
H       30.76272474      31.25032059     108.68988141
H       30.68356551      30.32365847     107.47185780
H       33.41354894      29.32641017      88.63019205
H       32.23339347      28.39361261      89.04653022
H       13.86624032       7.87002785      80.19279267
H       12.80619855       8.89358432      79.65778151
H       12.84109736      12.68114308     106.65698856
H       14.18763444      12.25507401     107.19686561
H       18.08645384      21.76359470      74.31755509
H       18.90718441      22.67552520      75.29994974
H       31.94151511      19.46194110     109.09504958
H       33.11419168      20.44837445     109.32889514
H       13.85722089      26.04257413      90.49255759
H       14.68290281      26.54967818      91.63476029
H       11.67535749       9.33092363      96.63876850
H       13.23834112       9.38741521      96.60435909
H       23.08306179      32.05631433      98.75345276
H       22.25063179      31.80872930      97.54801524
H       28.51085328      27.82655107      96.99360844
H       28.80760174      27.90965079      98.41893692
H       10.55781896       3.55912095      99.95192177
H       11.87909544       3.96374891      99.25956482
H       15.09816259      17.85914037     104.09162198
H       15.65834624      18.42896477     102.78483703
H        3.96230212      18.79401828      60.37652160
H        3.98530074      20.31687643      60.14501495
H       15.05718739      19.97366398      64.56833925
H       15.28738880      21.47310115      65.02173077
H       15.59443145      17.74922554      70.54071545
H       16.99489278      18.11070962      70.88134196
H       13.65719105      24.25692276      57.82684749
H       12.76058177      23.26864866      58.56269534
H        4.79502459      20.25386986     112.65092383
H        5.78189938      20.20024919     111.46412206
H       18.23499269       2.65810781     118.49044200
H       16.75646530       2.77877310     118.06790115
H        0.19818562      24.02674996     114.54625367
H        0.09728337      23.89876836     116.06167353
H        5.21373064      22.56609103      55.67266474
H        3.88746269      23.36312898      55.74378349
H       21.13785683      33.14819802      70.70218135
H       21.36257561      33.51597200      69.23668962
H        8.02469295       2.97217314      81.71468984
H        7.94840110       1.79342479      82.62458338
H       18.33134830      31.54289613      70.33650288
H       17.22925623      31.63396947      71.48640424
H        8.88948955      25.76323060      80.20663077
H        9.85968358      26.34855445      79.15965585
H       22.21886161      24.67460472     105.06325093
H       22.03602642      26.20047068     104.96516535
H       18.62744651      14.64155729      69.12715116
H       17.56451571      15.73246607      69.05597726
H       16.74302653      25.59237624      59.90365505
H       15.27087365      26.03401403      60.08546477
H       24.98868923       8.41623470      71.98584303
H       24.00393670       7.20577647      71.89960425
H       17.93364858      14.13397523      74.41560479
H       19.43247311      14.11778197      74.61181185
H        7.07740512      27.56020131     106.89642052
H        8.02842305      26.77252712     107.78663574
H        7.31628710      29.48924164      92.49077615
H        6.71336035      29.69144847      93.85525000
H       32.22093484      15.06242091      57.68915012
H       31.43236972      15.32101455      56.38778232
H       10.58090098      20.91342487     118.41837423
H       11.84175569      20.76974540     117.57094492
H       12.45208735       5.95118812      58.83543651
H       12.58114847       6.37707606      57.35560420
H        2.25611748      13.43685796      77.23924863
H        0.89420619      12.71537063      77.29119681
H       22.85504244      29.83045932      60.82763048
H       22.73371758      28.83783983      59.63844855
H       20.01223638      13.13886127      54.72775116
H       18.75350257      14.09528216      54.81977473
H       10.22398208      23.44379358      91.26429393
H        9.35945742      22.69107701      92.34391499
H        7.40895593       7.65872618      84.22397145
H        6.79139765       6.94417534      82.95188475
H       14.33528812      26.67369841      77.59745812
H       14.32675787      26.86717252      79.12764469
H       18.53161552      28.01300633      74.19595327
H       19.46612863      27.34806324      75.27163772
H       18.69446828      25.68056089      80.89486288
H       17.30767816      25.98539685      81.60239895
H       22.58827840      32.89083431      89.81809078
H       21.62502953      32.87251972      91.02506093
H        9.51419715      27.55976284      89.01113471
H        9.99338811      26.35152183      88.19571622
H       26.54333365      14.12533896      88.63781621
H       26.99502385      14.00399652      87.22643894
H        9.28902578       0.38757006      97.67777250
H       10.71033099       0.29203407      96.89255339
H        2.04396261      16.09805220      70.00216341
H        3.22135105      15.14871495      69.77100385
H       13.30199495      17.58981963      80.48598943
H       12.37852526      16.35091997      80.20327711
H       29.26591255      28.99665791      77.01578628
H       27.78566580      29.12197286      77.31926687
H        2.76448527      21.29387016      99.46907887
H        1.93787537      22.46437003      98.92794791
H       20.33303806      20.14940041     101.35468607
H       19.63327177      20.88214227     100.20199586
H       28.68400359      23.24738658     101.36370145
H       30.02405584      23.90558768     101.79351871
H        9.07510873      12.27893362      86.60575124
H        9.84700905      11.36353849      87.52157527
H       31.01940187      20.37332253      71.72851029
H       31.93561534      21.53241877      71.67279063
H        5.01317466      30.41143626      88.47991898
H        5.51667389      29.72450104      87.16806374
H       27.65005201       9.28862832     116.04671123
H       26.72135525      10.44453585     116.53557994
H       16.45236710       4.00851833      90.26886195
H       17.28383543       4.26891544      91.53918037
H        7.80174619       5.33500262     103.66326479
H        6.55893356       5.34705926     102.74304961
H       25.91842623      16.11710929      73.55370158
H       25.28852773      16.83721639      72.33815460
H       24.11205088      13.04770653      57.39613027
H       23.05252313      12.59613172      56.37108001
H       15.99326801       6.82298527     118.89494155
H       16.42679127       5.73927532     119.89901241
H       -0.28294439      19.31547963     103.87711901
H        0.87581362      19.44863279     102.80707692
H        3.43009621      13.26074594     109.64531071
H        1.90978254      13.53185791     109.92879674
H       26.10073163      16.75077238      76.47867910
H       27.10832401      17.52749077      77.36240968
H        0.61411898      15.11787041     105.25407166
H       -0.40368565      14.03217229     104.85439032
H       28.00687164      12.10229464     106.94421896
H       29.06340228      11.54453361     106.03047722
H       30.73337243       3.41255764      87.94631710
H       30.36884784       4.37168515      89.09981502
H       29.17946575      24.01406717      58.09567575
H       28.40186055      25.25580562      57.61120727
H       18.09878298      10.94570839      96.87075472
H       19.18836115       9.82935966      96.80964138
H       18.90363149      24.93604978      87.99789093
H       20.27810561      24.21285654      88.03004620
H       28.10439285      12.47519018      74.25686990
H       26.90345834      12.63405999      73.37128107
H       30.30262408      24.02918997      85.34271267
H       29.75649477      25.39083522      84.90603732
H       10.88891349      33.24476468      64.50704252
H        9.98441097      32.75125026      63.36649228
H        3.16551158      11.81953655      83.98466339
H        3.38430366      13.35411962      83.95642679
H       11.48006693      24.17504641     118.73850318
H       12.66517678      25.06837002     119.04120042
H       23.19381538      25.93806112     108.29286474
H       22.16107955      26.71119914     109.13891805
H       24.21839593      18.86108938     104.79569823
H       25.41748878      19.10392620     105.71405534
H       15.04793764       5.46553071     115.80960141
H       16.30200356       5.60045210     116.68498312
H        0.72939158       7.99366136      59.03821810
H        1.27879544       8.26156326      57.59854653
H        4.82543657      33.71918115     113.46407320
H        6.36666863      33.65153529     113.22422712
H       24.47125203      20.32233152      86.13720754
H       23.87468588      18.92608373      86.09866203
H       22.71626120       8.77424384     105.33259408
H       22.66476762       8.47023670     103.79173622
H        1.92867082      14.71777479      83.92288688
H        1.77869735      15.74814944      82.78411072
H        1.30105482      25.86115287     118.24914092
H        2.54900465      25.28411985     117.55199936
H       25.93727607       6.47007107     107.97778854
H       24.44874231       6.48599382     108.54423707
H       27.00529492       1.22381502     105.45084922
H       28.01178776       1.85697079     104.62896686
H       24.50610768      28.36851877      85.93656444
H       24.48067191      27.95448282      84.48384305
H       31.53812719      17.94102058      77.09386284
H       33.06159132      18.07240693      77.33134842
H        8.49985714       7.99723512      58.69321019
H        9.34414413       6.97235382      59.50890671
H       29.22021747      28.78933751      66.50867771
H       30.70984884      28.65355058      66.86254735
H        7.50734688      13.09957293      95.45273088
H        8.19534590      12.70526499      94.22974351
H        4.58821145      18.50482031      57.09637072
H        4.84254154      17.32708365      56.19064966
H        4.33009445      27.19095850      54.81498059
H        4.61882649      26.99109994      53.29567695
H       30.40448257      13.83026853     115.73000240
H       29.64773649      13.32357227     114.51370783
H       26.05381746       6.90749918      75.84012015
H       27.34122282       7.53785518      76.49625670
H       24.26130712      14.36690544      80.16155501
H       23.20303588      13.24538169      80.41075595
H       26.29684270      22.70261526     112.88245079
H       26.37461088      21.34681730     113.70751512
H       31.95695141      30.91861652      88.39582455
H       31.79871537      31.71926734      87.10184567
H        4.36216702      24.96223135     105.63969257
H        4.58579997      25.79650776     106.93460868
H       16.77067044       1.60817507     115.56575940
H       18.01359642       0.70590042     115.34203473
H        6.95377425      22.12988707     118.26056722
H        7.57286985      20.70039653     118.25790426
H        9.58561127      32.45007102     113.37097447
H        8.08195921      32.59738949     112.92919525
H       11.81812480      23.97539484     116.61390903
H       11.64774436      25.18555056     115.69115676
H       16.51079962      30.08048750     105.57338366
H       16.03184400      30.14130468     104.13048852
H        7.39093268       6.55267373      66.71699155
H        6.38297694       5.90844411      67.59906802
H       25.23429195       3.07584341      83.72109683
H       25.59581831       1.85223187      82.98685648
H       26.09060451      11.75766708      58.82176405
H       27.42566166      11.06999032      58.84863224
H       17.02506915      29.10324298     114.99551740
H       16.94193838      30.50542755     114.35190108
H        3.49219845      28.23396304      69.75445751
H        4.14405982      29.24744517      68.74960744
H       28.66340871       6.95075391      57.31450924
H       28.47716833       5.75053405      58.29593947
H        2.82590500      30.55220841      66.46675381
H        1.87385536      29.47178002      67.11717185
H       27.19865887      22.21263487      99.42647299
H       25.78845051      21.65933946      99.06978435
H        6.48499846      15.94602745      72.63831108
H        5.33929905      15.83235828      73.66172962
H        0.85398507       1.35019381      95.62057232
H        1.77044695       2.62379262      95.61120050
H       19.70742578       8.58349888      73.73318827
H       19.22990751       9.58362526      72.65670114
H       27.22520909       8.72171312      88.77656530
H       26.06846766       7.70116699      88.86787032
H       25.67480703      33.54912508      95.00413695
H       26.27756045      32.33081953      95.72183362
H        1.37097487      31.96111088     117.89740623
H        1.97982581      32.50733246     119.13392447
H       29.23880033      21.41925229      87.33636971
H       29.46077873      22.19487398      88.68150474
H       24.45668910      15.65814819      82.35696903
H       23.65412003      14.84908915      83.39531348
H        1.17520508      20.66374612      72.70030289
H        2.38988531      21.17232036      71.84781896
H       27.39065117      22.17537349      94.34186959
H       27.61774765      22.20032942      92.87470030
H        5.35511721      19.19999033      78.94741926
H        5.93852752      18.02862948      79.76148491
H       31.36900100       3.11112330      59.50131287
H       31.08972756       4.56225637      59.01175941
H       13.21788268      32.48206324     116.16272997
H       11.74724457      32.18159970     115.86323283
H        8.26592102       9.91649010      79.05349782
H        8.54159708       8.50505953      79.64876024
H       15.64796608      29.51992941      78.52183215
H       16.44766036      29.76212292      77.23091966
H       12.85799653      22.44414152      94.38905711
H       14.12948553      23.25268021      94.64581135
H       17.96011220      26.73384053      92.49157183
H       17.82312023      26.47741210      90.99946274
H        7.79630437      23.02911008      79.94600518
H        6.78135893      21.90823685      79.53515111
H       23.13999221      19.24004953      59.65024573
H       22.31570514      18.21006773      60.43099461
H       16.71977261      32.28797650      69.24852799
H       16.25136154      30.84867329      68.77094656
H       19.50516901      16.74043212      90.36547122
H       19.78007351      16.90890031      91.83368280
H       32.49693608       4.78937975      81.75268596
H       31.23577356       5.71199895      81.93371111
H        6.03440968      26.43142024      58.01457608
H        5.78297645      27.79726027      58.56392551
H        4.02885494      10.19632933     100.26502571
H        3.01932963      10.51752983     101.38974292
H       21.39605913       0.89695950      85.80377225
H       21.93459251      -0.47076720      86.41721292
H        0.62429227      13.13033664     119.35590755
H        1.41569470      12.26844404     118.51354560
H       20.91034331      23.62722206      55.67626454
H       22.07127991      23.89143738      56.68505909
H       14.04385295      29.10471019      71.01823221
H       12.89022776      29.85351702      70.30043867
H       21.26733103      27.61062552     114.86550308
H       20.94160626      26.65614945     116.04440863
H       24.46985215      26.19129896      76.86002391
H       24.31586106      25.24281677      75.62186065
H        9.53031631      12.62439155      63.12638568
H        9.59221718      12.73586577      61.62525519
H       17.89874582       5.31130292      80.01089780
H       17.31026019       6.57783607      79.32190124
H        2.20350742      18.91475362     116.23367218
H        3.12846345      20.11555332     116.64750504
H        3.67271639       5.28461865      68.72797175
H        4.05397069       4.06169319      69.54142139
H        0.89933825      21.64208086      55.61705504
H        0.88661180      21.87354324      57.13938564
H       17.15651013      13.71157654      63.22171578
H       16.41760509      14.13555792      61.91638490
H        1.83828517      27.84472357      91.78456893
H        2.72994500      28.56441426      92.74933350
H        7.12629649      28.97118364      81.08456753
H        5.99857857      27.97498544      80.64347598
H       20.60554317       1.46328999      99.73463572
H       19.57616982       2.43262128     100.25125362
H       14.00194834      12.62623610      79.18104371
H       14.97102668      13.72049775      79.75704329
H       25.22383415      29.89540552     109.96630235
H       25.64367838      30.30104333     111.36866735
H        4.25144696      17.43388173      94.76843992
H        3.92734271      16.11371868      95.49233518
H       28.03105051      30.13791134     104.99436257
H       27.24439739      29.55528108     103.77881748
H       23.00544779       3.31423026      56.20802557
H       24.47888355       3.22373260      55.76114044
H       32.46292252      16.63479732     102.33619754
H       32.41349674      18.05946051     101.71127713
H       14.24876082       1.74135798      81.58596991
H       14.36246070       0.25685149      81.08553701
H        8.92220441      23.80087906      97.70452783
H        8.99196894      24.24518280      96.26877950
H        2.96847739       6.69729868      93.84891068
H        2.14718907       5.43922050      93.76450354
H       11.54966246      32.95889171      80.27011644
H       12.68347446      33.58900941      81.06069986
H       16.70232290       7.60825378      97.82393510
H       16.69165365       6.10128529      98.15345512
H       18.00870682       5.06141809     111.91888718
H       16.64057962       4.79990049     111.27438903
H        3.73583958       9.88691479      75.70671671
H        2.76313954       9.18545422      74.75409734
H       10.60893218       5.84846185      88.70052526
H        9.62164158       6.99397653      88.54486668
H       19.81292658      28.51244564     116.78543193
H       20.38592762      29.89838991     117.30321137
H       31.67713301      21.35934623      62.89991446
H       30.95976179      22.44649454      63.70385699
H       23.43474575      33.80964456      57.12416583
H       23.41124973      32.91077609      58.42290434
H       16.38436198      25.30344811     110.24540083
H       15.87587357      26.57486618     109.46552274
H        5.93235125       4.32492028     112.17096859
H        6.15490641       2.80738486     111.96470914
H       10.37170573      20.18302739     108.41546530
H       11.57341054      20.41437424     109.33289528
H       19.81048915       3.41541301      79.09707579
H       20.91286317       4.31781585      78.54326601
H        5.84175176       3.74351421      95.18716518
H        5.21880894       2.79566058      96.25082937
H       11.79315159      23.56295026      66.49508719
H       11.70654473      25.00437994      67.08540187
H       31.59708844       8.67781881     106.98484172
H       32.03219125       9.47706067     105.72074066
H       -0.13579928       9.83812357      69.80987473
H        0.85324417       9.65368986      70.99905547
H       31.58024731       0.55935574     112.31704651
H       32.59114372       1.58741725     111.63184232
H       32.93494580      13.71963821      70.20649163
H       32.25901553      14.93997676      69.50557330
H       23.25403933      11.04046069      61.10749566
H       24.11279606      12.24758502      60.79780931
H       33.19248041       4.38264124     100.42001323
H       33.18422644       5.39262318      99.27413575
H       12.13775911      20.48316693      82.92124614
H       13.63213594      20.56868094      83.29980269
H       28.10014069      27.90007371      64.10598458
H       29.41943110      28.45499164      63.38310452
H       13.50028557      12.69293373      76.56082473
H       13.05386691      11.60887909      75.63953462
H        3.36697972      32.32557932      87.90940506
H        3.00703450      33.70227949      88.42955020
H       21.32725581      15.53460803      76.79417387
H       21.21304495      16.82047533      77.72193476
H       17.55566465      28.43235617      68.22972269
H       16.96614465      28.84981330      66.88577796
H       18.52857197      16.10835722      83.94062615
H       19.04098060      17.56696602      83.84909407
H        6.60408270       1.02066582     116.50011595
H        7.63265275       0.44147448     115.56650881
H       13.04274813       2.44650825     116.29363948
H       12.21494630       1.19720818     116.77065494
H        8.30667396       9.79210999      92.73072207
H        7.53308407      11.05345559      92.26992144
H        4.03577164       7.86602253      90.51242485
H        3.42404181       7.31046880      91.78229119
H       21.02117111       3.23523151      61.85208691
H       20.47106232       4.71944119      62.11385466
H       14.02729078       5.48599074      93.09422229
H       14.60094091       6.05609345      94.39761268
H       26.62907145       9.53749050     106.47975157
H       25.22271824       9.63935114     107.00452584
H        7.15353243      14.57996542     101.60501805
H        6.18206294      13.89328058     102.54490361
H       11.48161065      29.75024689     107.47658606
H       12.64220249      29.33424923     106.51318455
H       18.83166588       6.75460361      96.10956182
H       18.80686390       6.80338472      94.58603865
H       32.41474630      26.03710200      57.42178735
H       31.08077000      26.62240675      56.94206554
H        8.04881782       3.73721130      86.09824428
H        9.54697275       3.54364677      86.27500054
H       26.45556094      31.52503335      77.62263597
H       25.27596120      30.76347180      76.94385481
H       13.64894316      19.22184468      99.48724301
H       15.06684684      19.99224636      99.32105921
H        3.27373510       5.91866302      85.60695074
H        3.93692148       5.75779485      84.25273221
H       18.37304192      12.88546098      66.48798499
H       17.97997482      13.31866239      65.12199821
H        7.23431580      32.68498762      97.18630562
H        6.78552210      32.60605068      95.70607501
H       22.97564277       7.66560599      88.85469193
H       21.50230025       8.16046875      88.71234311
H        8.13933497       2.80535701      91.76996032
H        8.13788565       1.77226874      90.61867743
H        0.80680543      22.47396684      84.24809839
H       -0.34521997      23.42692958      83.94479431
H       31.51883585      30.83283727      76.86521623
H       32.36827745      29.61299852      76.48364943
H       15.48184727      22.08874429      84.70029262
H       16.56397431      23.05042664      85.11604919
H       24.21067426      28.85368087      62.86956758
H       25.14349806      27.77780387      63.48118488
H       32.97175736       7.92335582     102.11971345
H       32.72809998       9.38056402     102.60599088
H       27.99181277      13.91121441     110.08007000
H       29.42727479      14.32185641     109.69191671
H       24.80248145       8.05062674      62.95712781
H       26.27115737       7.80534158      62.64070405
H        6.87003393       4.31085096      92.55544564
H        6.97285177       5.82090044      92.27921130
H       15.84485941      15.99576552      88.98429720
H       14.39577807      16.42775718      88.45344220
H       21.37909693      24.51708451      95.40162357
H       20.20972481      25.53244604      95.50317411
H       19.86447281      11.72640905      98.58847274
H       20.76065095      12.86597295      98.78932351
H        4.61689609      23.58359562      76.30668461
H        5.57334916      23.94878070      77.49099315
H       10.95745402      23.40400163      89.41628332
H       10.84978961      23.01266271      87.93635581
H        0.57080312       1.78624452      62.95753962
H        0.25294653       3.29371112      63.24348352
H        5.18676341      18.19825550     100.23439662
H        3.94375440      19.08882249     100.62725380
H        2.06588403      29.38442989      59.47240173
H        2.08491326      27.93961722      59.00552214
H       24.03043398      25.14941674      89.45287067
H       24.42307866      26.59729486      89.91332064
H       12.95125062       1.49590933      59.78741680
H       14.28972092       1.92482998      59.23140102
H       20.57398619       7.81862592      83.74999416
H       20.93082905       6.90025498      82.63390003
H       30.46379172      11.76864774      94.72691181
H       30.29019368      10.30393913      95.13530991
H       15.82928495       7.07932862      86.22547641
H       17.27384239       7.38941293      86.51996474
H        0.64410695       2.22474359     114.59738038
H        0.63074682       0.89456495     113.82644315
H       22.67439342      21.71907177     107.13202606
H       22.90258684      22.69258487     108.20887417
H        8.57827076      17.32448721      58.41731198
H        9.05865479      16.32884457      57.37553680
H        6.99591313      15.25519651     108.77612480
H        8.29032427      14.55331790     109.24813642
H        6.80069458      14.72189001      67.76363001
H        5.55534612      14.55169755      68.61031795
H       30.33043330       5.60099766      92.25905343
H       29.07574992       4.80005920      91.99520644
H        2.39695745      31.68522293     100.19505224
H        3.36485807      32.79994300     100.38270294
H       27.59505378       8.92930947      55.26486213
H       27.30090103      10.06502378      54.33446770
H       18.68700494      22.06055246     118.38551596
H       19.82115651      22.98426028     117.74260936
H       12.81660291      31.36982609      94.96126284
H       12.44940922      31.55993200      96.42397724
H       23.18214108       4.64331075      70.61090915
H       23.63750003       3.79488079      71.82840244
H       11.88139973      33.52354734      53.37376449
H       12.05221504      32.98205108      54.81158756
H       17.05192798       2.21548546      60.91276975
H       17.01275445       3.76377206      60.99286478
H       27.71097477      33.56084726      55.25391080
H       28.48341502      33.89191253      56.49671506
H       10.87473764      20.31027601      75.92926047
H       11.88502460      19.74159928      76.93636292
H       30.05134020      20.19048453     107.43721238
H       29.58334454      21.47433557     106.66503424
H       19.52841916       7.62359577      58.39204990
H       18.68023928       6.74399805      59.34194668
H        0.76162617       0.71854933      69.46969647
H        2.17269207       0.35594128      69.15845411
H       20.42600096      11.79558504      83.80272310
H       20.80803882      11.47474861      82.39341862
H        8.54418099      22.80721832      69.25736854
H        8.98339092      24.06440679      69.98372891
H       24.65086979       1.23436949      68.38359381
H       24.94669067       0.32552827      67.15543775
H        6.93730117      19.95596648      87.25526465
H        8.04740517      20.83950292      86.78850872
H        9.99644245      29.18370204      79.54232454
H       10.56111713      28.38749671      80.75479272
H       18.20983049       6.18713838     115.88726631
H       19.22916879       7.30436100     115.64721334
H        2.85047020       3.95590740      60.63880899
H        1.60341732       4.85266523      61.02121648
H        1.15218295      20.48308165     114.45482135
H        2.49995848      19.79622211     114.16306438
H        6.80161548      18.65909865      93.37134569
H        7.53964618      18.69086492      94.69315638
H       10.09041823      29.01059536      69.02513533
H       10.20904918      29.13972548      67.53361281
H       17.06430495      13.07805163      90.35411107
H       18.24860920      14.05629744      90.67714860
H       28.16425499      17.24645033      87.50058420
H       26.82379177      17.59773248      86.81420177
H        4.49081485       2.92759727     108.62739287
H        4.69915739       2.33516158     110.00152636
H       11.92091566      17.71821354      96.54702182
H       11.63037015      18.95652503      95.79011307
H       30.59973567      22.38490715      96.62160753
H       29.95569644      22.74239208      95.24366714
H        1.61494355      17.55175700      86.22976356
H        2.14493336      16.13826386      86.31263433
H       22.00539039      15.62136850      70.89524125
H       20.65771894      16.37118652      71.17877358
H       14.13340310      10.93493241      93.82919065
H       13.09683333      12.04147158      93.57172106
H        8.92831829      31.63673335     110.53356872
H        9.73584115      30.39829958     110.12678208
H        0.80822798      11.85264856     103.85884895
H       -0.43628260      11.56724059     102.98008157
H        1.94630677       4.38154517      54.66384733
H        0.77938550       4.85505422      55.59058526
H       13.23667084      21.51412067      69.17121116
H       14.71830668      21.41171585      68.89433048
H       11.54377944      32.95149078      76.47939622
H       10.22505332      33.22994430      75.87970750
H       28.65974440      21.98787834      79.57753212
H       27.63932412      22.41442505      78.48173000
H       27.45221771       8.68508609      67.77295744
H       26.22430436       8.58452609      66.82598532
H       30.10062380      13.28322103      62.75849875
H       30.74453406      12.90786469      64.12870809
H       29.76155789       2.65072811     115.32522214
H       30.97181642       2.09286346     114.52714665
H        8.21570090       5.06296277      99.17400436
H        8.76798367       3.73245281      99.50580641
H        3.59027889      16.57943038      98.43496543
H        2.37710396      15.59267316      98.37390613
H       16.45613890      11.10509799     100.08944196
H       17.68489023      10.62859535     100.91221986
H       10.03797845       0.99438778     105.47439763
H       11.15521603       0.43602350     104.56228843
H       32.44228075      19.12657592      85.59859450
H       32.93192000      19.91079594      84.33079484
H       30.54802345      24.32999982      80.58218553
H       31.40614162      24.07424676      81.76677101
H       10.53660313       8.30052231      85.15633133
H       10.19401722       7.39804304      84.03717578
H       12.66033734       4.43843112      89.93944929
H       14.08759011       4.62035147      90.41526519
H       17.26533797       3.86900165      74.89075873
H       18.81298674       3.82236644      75.07547188
H       30.24483942      11.82845499      76.55159050
H       30.37867279      10.64837185      75.57371422
H       27.07888253       0.43018727     110.52129238
H       26.99869163       1.96960854     110.90589249
H       13.76033016      11.50176473      89.55941337
H       13.49754555      10.56348847      90.74257662
H        6.81582702      22.07927533      66.07986157
H        6.63227338      23.55966105      66.31048456
H       27.81935300      20.53899017      58.52499598
H       29.20980379      20.14000570      58.98263944
H        2.22495444       4.62165837     105.16622757
H        1.43490613       5.90730109     105.03807298
H       24.79534630      28.86347159      54.15989435
H       23.69630698      27.82780988      53.84742798
H        4.08664011      25.82889174      90.91642887
H        5.10170509      26.80406176      90.20524793
H       14.79068628      18.63488897      93.53899206
H       14.42252286      18.16070313      94.89534045
H       16.31950299       6.60325416      67.02882806
H       17.40844315       6.44594800      68.11513909
H       25.07894964       4.48579565      90.67279213
H       25.73392201       3.90357476      89.40751658
H        0.72374509      30.57642992      95.96433067
H        0.40079309      31.59997040      96.92206355
H       32.17401011      20.69485444     100.70498110
H       33.62456660      20.27667560     100.51977176
H       27.00055027      11.40208469      97.72879125
H       27.32495784      12.73304768      98.46825888
H       21.46107420      18.84303277     114.11638033
H       21.88251473      17.47807131     113.55858984
H       33.06375859      24.29569891      72.41631225
H       32.94388208      25.76073055      72.95103172
H       22.06041430       6.47755984      78.16979366
H       21.65707991       7.56874287      77.18847008
H       29.78543305      23.07199163     119.24049840
H       30.54158148      24.34505669     118.93569750
H       27.60851606      28.24866692      69.21574851
H       26.91214888      28.35170582      70.64090987
H        7.11375599      24.69368641      58.44509149
H        6.81407794      24.11549830      57.29540604
H       15.65596038      21.77061120      98.45436785
H       16.32969327      22.24380773      99.76932517
H       19.40920121      19.38080915      91.71017510
H       20.28187500      20.28785329      90.80694009
H        7.26895638      15.90376907     112.33397651
H        6.09994871      16.82418819     112.11211286
H        8.64688909      25.20030528     116.42947835
H        7.41939896      26.15720988     116.33094765
H       15.63222190       8.71193377      54.76294195
H       15.10781907       9.75996463      55.75414612
H        6.97061800       4.93638729      60.66753594
H        6.98982491       6.23003824      59.80879984
H       15.93380693      30.07994217      75.53160260
H       16.63262790      28.90599294      74.77073292
H       19.95864868       0.91664734      91.10784558
H       19.41331212       1.16353448      92.44119185
H       31.86513259      28.06701957     113.34936390
H       32.99429213      28.45203749     112.38886973
H        1.39356503      16.21735878      62.93738428
H        0.52694969      15.79584844      64.06672662
H        0.62724540      19.64706867      96.80224895
H        1.06239537      18.33278974      97.49543898
H        5.47938079      29.17628141      65.04702401
H        4.29682038      30.06840309      65.44289837
H        1.65417731      23.63099204     108.82744059
H        0.45613585      24.58954350     109.03234599
H       -0.19482457      13.33723391      90.56150129
H        0.83330872      12.17733203      90.35913140
H       10.70773454      10.42660659      82.23894467
H        9.67701816      10.13633364      81.13952977
H        2.67881248      29.33438956      63.04355589
H        1.69144248      28.15371971      62.89890181
H       31.60103397      30.56088531      92.43396992
H       31.82322516      32.03732659      92.50852941
H        8.51424459      22.08932196     116.16756386
H        8.07250663      21.05097580     115.05453707
H       28.20934671       2.71420285      72.75142404
H       29.59106360       2.10202904      72.71240722
H       12.59230875      13.98696643      58.44106685
H       12.67481992      14.07002299      59.99965034
H       12.84994018      22.64899962      97.29193365
H       13.49937819      21.68595308      98.25726790
H       13.90407654      24.65558610      70.96920581
H       14.49181161      24.27235537      72.35813918
H        4.93399473      21.83281430     116.91474156
H        4.65326149      22.99967429     117.96290712
H       30.75423170      13.17392403      66.87984306
H       30.77353165      11.94480170      66.06743626
H       21.79963779      22.35269343      71.97590542
H       21.47662684      23.82054138      72.32032984
H       13.61163528      22.61682377     110.98507893
H       14.77246548      23.33159010     111.65694087
H       33.22654235      23.04653846      96.61529734
H       32.72968733      21.54360133      96.66155503
H       28.18416275       3.81110803      78.68083217
H       29.42808764       4.48236589      77.94901606
H       13.96565797      32.10372745      98.49157866
H       14.93650051      31.25877064      99.32772321
H        2.99241387      31.25991329      93.43609802
H        1.78300444      31.19656541      92.44251082
H        2.06420229      25.15333711      86.91536983
H        0.61655938      24.97428646      87.18315418
H        4.80133433      13.30909332      87.70369308
H        5.68675934      12.24666014      87.02131922
H       19.79680222       1.99215872      66.29683069
H       19.16489149       0.59861596      66.33033992
H        8.22164905      21.28741315      57.85283894
H        8.69663930      19.84620174      58.10642377
H       25.53202835       2.58024952      92.97378479
H       25.05800067       4.06405846      92.82248613
H       14.61994931      10.37628756      63.17155689
H       13.50026422      10.90799798      64.10247177
H       16.78799440      14.81191963      96.78218473
H       16.91020800      16.31807709      96.93498886
H       15.24537088      19.57292230      88.42493387
H       14.86431700      21.04058646      88.75289258
H       16.76308352      10.99287786     107.29435579
H       16.58823001       9.57727641     106.65236280
H       25.40124421      22.76240982      96.24917083
H       24.58024977      21.53670674      96.86263270
H       15.28488936      15.65671635     118.65460447
H       16.64401546      16.19277964     118.18905680
H       31.19895103      31.41520497      84.17772412
H       32.46286297      30.78884728      83.59328978
H       16.02217848      20.02584367      92.96078334
H       17.19175639      19.90902900      93.86175085
H        4.33899399      14.69224396      59.70784052
H        3.67298273      13.47501353      60.36700131
H       22.41625159      10.67572458      55.01985165
H       22.43509587      11.36409678      56.41789280
H       18.25410624      12.98813049      78.78373515
H       19.48990827      12.74822062      77.94870309
H       13.16379880       1.92708951      86.83717807
H       13.67034003       0.48691404      86.53950800
H        8.19734300      10.56430125      73.60085460
H        9.71671323      10.48084442      73.92767262
H       26.48918502       3.89984816     100.18330164
H       27.81746739       3.35555692     100.77662590
H        0.60430073      23.36696452     105.75655100
H        0.80219210      22.59353762     104.54805922
H        3.81991094      26.55204754      76.15758325
H        4.74522191      25.96309825      75.08685664
H       22.73554049      22.10824643      92.55788115
H       23.98637119      22.90806267      92.46865857
H       15.72149185      26.87966450      76.08775802
H       17.01509227      26.78976777      75.40590648
H       13.48613762       4.43129573      79.63305697
H       13.20554913       2.94125976      79.53156040
H        8.49839710      20.61554331     106.09874412
H        6.93655858      20.78765930     106.33664334
H       14.35554318      24.33288493     101.75737071
H       15.69010583      24.20726491     100.95589918
H        7.03708215      22.31032370     101.42528306
H        7.13265892      22.42294675      99.94416077
H       20.98090632      19.79844736      56.49013063
H       22.04031745      20.93363804      56.31929495
H        7.90639558      20.48334131      83.05664803
H        9.29784730      20.74400562      82.39029916
H       26.91219895       2.43609182      68.93692174
H       28.32498122       2.40457512      69.64460831
H       29.23462144      19.69274426      82.16730934
H       28.52520691      19.46865405      83.56971469
H       12.45495071      12.38139819      69.87766382
H       11.40908119      11.66863599      68.97906842
H       31.85958001       3.27619727      54.59472014
H       33.32538537       3.71529375      54.68054297
H       32.58416391      32.45007698     110.53342198
H       33.35958660      33.81219506     110.64790947
H        6.31228817      17.49009825      74.41279420
H        6.28480263      18.03920388      75.81986208
H        3.08767908      31.36317075      60.52912200
H        4.49843382      31.90534590      61.00648063
H       23.84531828      22.19987574     119.66407630
H       24.67896544      23.28883477     120.39372942
H        8.89129542      32.64534688      60.60664903
H        8.42290500      33.59709630      59.40517714
H        4.31919066      19.37207720     110.08356223
H        2.89583794      19.35483298     109.45455783
H       17.56334847      10.21193669      54.17592808
H       18.96880025       9.98223906      53.47956566
H       31.88588623      31.67532633     113.74310027
H       30.62379889      31.49101380     114.58630225
H        0.59667287      25.23800446      92.45625744
H        0.78768341      26.12669666      91.27934634
H       10.31357593      29.12512254      57.90326130
H       10.32392139      30.00757882      59.19203227
H       14.36102535       8.72022890     102.77207363
H       13.49127193       9.88268973     103.23844065
H        2.67950065      29.10789490      85.82294326
H        3.32480650      29.23664384      87.23238280
H        6.60387741      26.29606282      66.80850643
H        7.21477578      27.32557396      67.78239994
H       25.75957510      16.93252769     107.88707424
H       26.52392765      16.92746739     109.28032435
H       31.20614579      16.76690467      68.43340214
H       29.85255863      16.08824201      68.62305144
H       16.14816260       0.48894301      70.17825805
H       15.51135322       1.22177976      69.01656684
H       13.29650777       3.21887035     110.67080468
H       13.58037685       4.53953804     111.35408922
H        0.82430498       5.83837543      89.37543435
H        2.05385177       6.03778337      90.20440406
H        7.26410754       9.27686294      97.21457329
H        8.41967473       9.45351146      98.22570637
H       27.68489272      30.82412091      91.12851078
H       26.90610334      30.65831394      89.81810034
H       24.26365909       8.96739599      66.47800584
H       24.30308723      10.10344804      65.40737116
H        8.01142824      25.10428966      99.84500117
H        8.10304351      25.80742799     101.16175365
H        5.92877649       4.40036603     100.14101258
H        4.46976077       4.63363923     100.69999838
H       23.64224848      22.57848078      86.90737170
H       24.53790684      23.16624874      85.76157771
H        2.09785223       0.73285271      58.02789830
H        1.35033650       1.20475100      56.73227408
H       22.15835742       6.19465552     113.90628927
H       22.73954038       7.27945445     114.84873623
H       32.18636587      14.16129041      96.99864217
H       32.09349945      13.46910484      95.62945365
H       28.29433378      -0.30240716     118.71279538
H       27.77965848       0.71788621     117.72510872
H        8.48767344      20.46293553      73.05893830
H        7.39919230      19.40301026      72.87459344
H       19.53456950      11.87100288      59.04072632
H       18.75683368      12.81315316      58.06293755
H       31.12165624       4.95275221      97.35985106
H       32.29150576       4.48942304      96.51391094
H        8.73409538       0.71970077     109.07617411
H       10.10838193       1.09642626     109.70937432
H       29.98643677       3.87483792      83.99012227
H       28.82278427       4.71703881      83.43773649
H        9.57712861      31.97512774     118.69958908
H        8.28406658      32.41205817     119.40799660
H       21.24238830       4.49407538     116.67269510
H       21.30497978       3.02087792     116.21218361
H       17.67988116      23.61489326      90.41402894
H       18.99410269      23.38323972      91.13555794
H        0.58417561      28.62765201     107.21757988
H        1.27213605      27.27076997     107.37736627
H        2.25756286       7.04254084     116.43895977
H        2.30643084       5.44373216     116.34549134
H       25.38722314      25.13001410      83.80069651
H       24.57859099      24.85523059      82.49374026
H        5.21889818       6.62716017     107.06928868
H        6.15022522       6.40153651     105.89792081
H       23.51834723       3.49534813     106.31252106
H       22.75597661       4.43584650     107.20197577
H       26.03694863      22.09926399      70.75221997
H       27.29671255      21.68995815      70.01866525
H       30.54288395      17.09074861     111.59703550
H       30.70306454      17.32045782     113.04805627
H       -0.24301617      20.37590955      54.69772640
H        0.83814789      19.68713913      53.85047884
H       11.30799358      14.97913078     106.35757652
H       10.41530911      13.75370094     106.58077939
H       11.17399383      15.51523346      88.22945020
H       12.15439048      14.89232854      87.10420866
H       32.63477534      12.02513031     109.58489797
H       32.03558676      13.35650446     109.15569773
H        9.17385882      30.63826988      56.37398242
H        9.01419347      32.17073375      56.14334650
H       22.83618895      18.54619208     108.65475259
H       22.76455762      16.94625119     108.53382107
H       23.53271771      31.87388897     109.44064932
H       24.94237187      31.32190310     109.03988142
H       16.79170243       2.90713017      76.06872066
H       16.22018734       1.54073368      75.60394899
H       20.11496618      15.57605725      67.09302283
H       21.04929690      16.77584867      67.02906703
H        2.88034103      22.79042309      64.00613525
H        2.11642622      21.42429698      64.26419252
H       20.46872879      24.97519393     101.76966203
H       20.94973364      25.67459293     100.49168744
H       11.20524240       7.92151138      75.78624703
H       11.31051050       7.51437498      77.27874299
H        9.83037095      27.40145658      56.43392324
H       10.80465705      28.02321352      55.44647369
H        9.59138826       2.38323084      69.90433516
H        8.32682573       2.09827300      69.04213196
H       16.97143549      29.86693791      58.72918253
H       16.90438285      29.62642795      60.27824185
H       20.21672803      19.99801787      66.31793795
H       20.25047621      18.91252300      67.50174386
H        3.70668405      24.23761515      60.34284093
H        4.10501215      25.41045467      59.36837101
H        3.12885064       4.05400199      57.09748429
H        4.36326195       4.42626199      58.00299395
H        4.09378889      32.39144073      81.46848694
H        5.48915279      32.65123133      81.50014487
H       24.94717850       0.35917069      88.70603659
H       25.98854907      -0.07441682      89.77709777
H       28.03803426       9.86211031     110.32377532
H       29.54548436      10.43126899     110.21039653
H        7.08906553       9.56654613      64.77474392
H        6.59122599       8.58044444      65.87067978
H       19.61288834       5.03104850      71.14689234
H       20.80959150       4.08532108      71.32540120
H       12.41853489      28.53239628      75.38955773
H       13.25042149      27.27838511      75.63641145
H       24.19266561      19.70548034      98.45543017
H       23.72825860      19.74301845      99.88908757
H       23.62759763      16.70449756      69.02345702
H       24.24350839      15.59236268      68.14270492
H        0.76320056      22.30768685      76.96288113
H        1.86852652      21.38536478      76.41535142
H       22.51713029      14.84308886     113.69514214
H       22.95341371      15.15565793     112.28054408
H       23.70361061      30.07306968      68.31662679
H       24.12190360      30.47907622      69.77436791
H       10.65964116      26.11451328      59.98861363
H        9.82645261      25.50793701      61.13902648
H       11.75816998       6.14456792      72.64121278
H       11.22329655       6.52055417      71.31884825
H       12.78519963      18.92133766      60.29731197
H       12.14517919      20.36722311      60.23161487
H       27.90751138      23.27642034      71.65136040
H       28.63703747      24.62733751      71.73764105
H        7.17841741      16.26308005      68.25022721
H        6.61701434      17.24668532      69.15969060
H        5.50296613      25.43687673      62.89330662
H        6.30681318      24.18479049      62.43911344
H        1.46285664       0.61013997     104.16248222
H        2.01351708       1.33942656     102.97654080
H       33.97614423      33.53629581      73.93181545
H       32.92019472      32.78537099      73.10715567
H       17.83659218      19.16237699      83.47025845
H       18.05794166      20.67534111      83.49538344
H       31.70049517      27.95214091      94.00832299
H       31.09773079      29.39280411      93.93975512
H       19.51100362      19.99134403     108.84340230
H       20.64206257      19.98759605     107.79689084
H       18.95901883      27.58184694      63.87731650
H       19.50125596      26.29579141      64.51138318
H       33.28561006      18.76044510      65.39312528
H       31.87718140      19.42126786      65.81092654
H       10.59668542      22.61038601      56.13997125
H        9.67743567      21.50325125      55.54994858
H       16.84624964      31.35802222     117.93085996
H       17.82746878      30.59210543     118.72680321
H        2.32599075       2.61136224      89.28696365
H        0.89007368       3.06012907      89.23257738
H       32.90044909       8.22641055      85.32087357
H       31.54944096       8.37336654      84.58063665
H       31.94455062       5.29371492      88.15170338
H       32.36511345       6.50113372      87.33638769
H       23.67252054       8.02602002     119.60219409
H       22.45331936       7.15526453     119.35772795
H       29.40500960       3.48616357     101.71996451
H       29.86454803       2.19740486     102.43978312
H       17.89280854      15.92990557      79.28381862
H       17.21563299      16.34446803      80.60007561
H       18.35145033      16.38445629      63.85854548
H       18.62172757      17.84600694      64.12884877
H       22.18033932      20.17097257      83.49223250
H       21.80231319      18.70609662      83.30022443
H        2.30116118      11.07752489      81.72516193
H        1.27434725      10.84410452      80.63285609
H       14.03891509      17.78460234      77.81175751
H       15.01332071      16.59850075      77.78075768
H       30.80382422       3.85327991      69.29486019
H       31.74581793       4.57663297      68.30502258
H        2.29355939      25.58764159      94.16840313
H        0.80999089      25.34548352      94.42565110
H       29.84962635       5.86817059      62.89098902
H       29.63218415       4.44406975      62.32017775
H       10.39396465      14.21255629      92.17976348
H       10.99777258      12.77901952      92.26806363
H       23.79359876      27.95486600      87.65220666
H       24.30742772      28.30870341      89.02934524
H        5.36128671      12.87452088      75.31240587
H        4.44316589      12.08295371      76.32755121
H       13.30029796       6.25708769      61.83081887
H       13.47245121       5.02323501      62.51604095
H        7.50932578       4.43767138      90.64577910
H        6.43988464       5.00341874      89.72173441
H        5.22761323      11.24955226      78.92739716
H        6.69335672      11.81268007      79.17046337
H        1.98334548      11.91469740     107.43872819
H        3.00304928      11.35864157     106.33312104
H        4.31231524      24.10115759     112.98987418
H        2.91897190      24.12333440     113.50906289
H       16.04681413       7.03871689      72.30063433
H       17.16085623       8.06942115      71.76649847
H        7.08402229      16.58206118     118.37319435
H        5.92136442      17.02464269     119.32314443
H       33.14016775      25.48420854     111.51439956
H       32.06470000      25.32745001     112.61690398
H       21.78142061       7.79686676      62.63738893
H       21.24652737       8.47693459      63.94745823
H       10.94794534       2.07079714      74.99775286
H       10.87029002       2.76931541      73.66334576
H       24.93778158       9.85250267     114.23841524
H       25.82316419       9.87484086     112.94967907
H       17.37129823       1.33798344      88.47981379
H       18.25790633       0.42589602      89.24972926
H       21.70494732       1.47189823      71.49885129
H       21.01057040       2.06469668      72.70781239
H        7.86435342       6.21137126      72.70966960
H        7.15983088       5.37959478      71.62739922
H       23.94975943      17.36330910      57.80253752
H       22.73171311      16.43886034      57.67042039
H       30.14041786      32.08780485      58.27996385
H       29.63143607      30.75240579      58.23474900
H       23.29415783       8.90769905     100.92319485
H       24.36248492       9.49723249     101.86299177
H       33.25396347      25.68327352     119.40384655
H       32.10557781      25.44667221     120.36661111
H        5.21347456       3.48786387     105.10335785
H        3.86714728       2.81636601     105.07754019
H       23.75363676       9.30363715      78.78255991
H       24.55620931       8.78775248      77.56419153
H        4.57465450      29.72279750      99.67395127
H        5.88374847      29.41798117     100.44485350
H        6.02369697      32.88979753      68.36436223
H        6.05582633      32.72237628      66.75831840
H       29.16078734      25.97502826      59.78017495
H       30.43445055      26.70605948      60.09908268
H       20.63396789      27.87725156      58.33414794
H       21.13168178      29.14255978      59.04021433
H       13.02660666      26.03010810     104.79791833
H       12.47682308      27.44230796     104.63038022
H       15.46722253      30.97381935      92.48742448
H       15.80994675      31.46506773      93.90421837
H        0.61789706      32.27655787      55.41823033
H       -0.63687741      31.91928830      54.67128673
H        9.34212660       7.94441998     103.33823294
H       10.60118619       7.91807004     104.22297049
H        7.24454170       6.62541502      78.59127397
H        6.30973186       5.45151902      78.20702662
H       29.16392013      12.27458108      88.99391670
H       28.50699491      13.00682618      90.13999125
H       18.24430036      11.88322084     112.65928530
H       18.81244949      10.42957390     112.66186523
H       16.06538586      10.03813615      72.53112862
H       16.34420489      11.39786322      73.08996631
H       12.32387228      14.74510347     113.08497748
H       13.46330588      15.64877535     112.50404882
H       25.90278099      23.76322351      91.62289889
H       26.51736099      22.54376173      90.89321730
H       23.44331876      24.73720736      98.98777915
H       22.49215595      23.67299840      98.39648051
H       19.92381883      33.63079525      82.39502780
H       19.27077871      32.68569753      83.47461669
H        3.57113218      21.82921772      91.32269240
H        3.11520799      23.28874102      91.18928184
H       33.61367342      16.17965974      81.91515853
H       33.07939389      14.95689485      81.10058696
H       27.84703266       7.82046382      80.14852384
H       26.86005341       6.94176959      80.84551542
H        5.77250620       9.96588152      76.46304649
H        5.96825941      11.32024308      77.18735893
H       18.17375706      25.46301330     101.29494739
H       17.79511484      25.51697432     102.74336239
H       30.35788008      10.36625018      88.66571075
H       30.69556651       9.78518089      90.04315942
H        5.72924739      27.31869596      84.17323144
H        4.87085616      27.00055464      85.44351930
H       16.22564640      20.20317514     111.74895716
H       17.22698056      19.21986769     112.42855235
H        6.57700954      28.46814603     116.13611531
H        7.88907355      28.16865120     115.28224367
H       22.93269308      32.97918361     119.42903443
H       24.03821803      33.71368171     118.48666334
H       27.98357863      22.49760700      67.79389904
H       29.38860732      22.10597309      67.32036544
H       27.13041058      29.34403137      96.35601386
H       26.08168785      29.74481471      97.43385771
H       19.73273254      12.71376690      70.90709443
H       19.84462453      12.54819396      69.38775590
H       28.46457325      16.98505325      99.49267323
H       28.39781926      18.44140661     100.02407938
H        2.03380623      15.67086116      66.78965897
H        2.61533637      15.18688615      65.45187705
H       23.50379909      12.68712217     111.23996925
H       24.88585658      13.15889879     110.73806314
H        3.42463701      32.39779347      57.51877082
H        4.16775998      31.87706822      56.27531524
H       30.59165832      12.78413787     112.92441789
H       31.26227844      12.58419505     111.56541752
H       21.31363224      20.52240193      94.56521677
H       21.74572544      20.28293050      93.10958772
H       19.82356642      26.40292213     117.76516639
H       19.42824351      24.94130289     117.73093210
H       21.67003618       5.79238860      57.37309460
H       20.64187798       5.00854908      56.49861491
H       26.84100139      18.15675395     118.03447658
H       27.06806409      16.67797861     117.61197893
H       28.13537291      25.24102322      61.66759068
H       28.80078048      26.10260956      62.76512182
H        4.05922477      13.77725496     117.40195951
H        5.49576796      13.61081563     116.86036584
H       11.62694384      25.74411043      84.06349244
H       10.84819998      24.41053362      84.01541404
H       21.98981272       5.48192842      83.15548825
H       22.95829679       5.23177793      84.25258616
H        0.74287743      18.25567575     114.39889172
H       -0.11117063      16.96758555     113.97596437
H        8.41969211      10.87263317     112.03195079
H        7.12149429      10.02838526     112.21585705
H       10.01005224      25.52109084      93.89558997
H       10.96057525      26.49920349      93.13242979
H       10.70462787       2.26433970      90.20431422
H       11.94709201       2.13098889      91.08862438
H       32.02733909       5.76309911     106.80488772
H       33.47323945       6.24777455     106.64171324
H        2.16148830       0.82856054      81.09767775
H        1.23248576       0.89757838      79.90169017
H       11.70450860      23.94533354     101.79832409
H       11.72754645      24.82318693     100.52242501
H       23.36795587      13.60870732      68.12538324
H       22.04263000      13.35244651      67.44297379
H        9.16145415      13.21958051      74.60478409
H        9.84558613      14.35703726      75.41945589
H       22.32130974      23.26705050      84.38143697
H       21.03711397      22.46214846      84.18829119
H       25.19527179      21.29767443      63.16466574
H       24.52614152      20.74205948      61.90804086
H       28.48424252      16.96256891     106.45053959
H       29.29926540      16.71904181     107.76070374
H        6.36020309      12.27654185      56.31159791
H        7.06331402      10.94179028      56.04421394
H       30.27823704       6.18340782      73.45478041
H       31.91513844       5.88558838      73.60572656
H       21.97255366      10.30484777      98.18449698
H       23.28894726      11.00431562      97.87812134
H        9.55892955      26.64343234      64.25583126
H        9.72619716      27.27860574      62.88512568
H       29.56018205      28.25937237      89.88807816
H       28.49031704      27.18662238      89.81304228
H       30.48489213       9.85738469     115.71197932
H       30.56767248       8.34477749     115.59383180
H        6.46841416      10.00225661     103.96867082
H        6.42128412      10.90438053     105.24198609
H        3.16042397       9.93516368     109.65540642
H        3.01361017       8.57428306     110.42008306
H       25.87817770       3.76824203      58.10266886
H       26.83976082       2.55181329      58.29079781
H       27.29690452      28.71242631      82.55958226
H       26.43557219      27.58246773      82.00203859
H       16.19131174       9.17564698      91.27944222
H       16.16335602       7.88674012      92.04370543
H       14.59901603      21.08171352      57.67254287
H       14.77017382      19.98530428      56.55069258
H       16.95466547      29.94962278     110.64089749
H       17.30706586      31.15046952     109.79122725
H        6.92273539      17.33508005      82.96883882
H        7.69351057      18.39521513      82.17390497
H        3.62806764       0.21328165     115.03695097
H        2.28450465       0.77651361     115.56993514
H        2.01936553      27.58992812     118.91694682
H        2.02820485      28.64355507     120.05969651
H        8.67047080       4.16188598      63.27200172
H        8.37930988       2.88452170      62.45495059
H       22.98225190       6.25775806     100.62951346
H       23.82482629       5.58220862     101.68212665
H       21.95349915       0.14474500     102.96252140
H       22.04083106       1.33651158     103.87758291
H       18.51768757      32.59324961      64.04129123
H       18.98593996      33.12493402      62.70473985
H        9.80609229      19.92055091      89.79620005
H       11.01105312      20.80743273      89.82227503
H       14.71052238       2.58256535      93.65087346
H       14.43980740       4.03796724      93.88521458
H       29.62033154      14.84452913      54.42475701
H       28.98403797      13.53697789      53.79874525
H       15.26347688       6.77549679     100.97484587
H       15.84159881       6.95669272     102.32484104
H       30.59010472      11.28276220      80.35249020
H       32.00516607      10.89326068      80.14740105
H       18.66451657      19.55844545      69.52972945
H       18.70635048      18.42066439      70.49364520
H       24.81155190      14.45597065     104.25583611
H       24.87077539      14.54482078     102.76421605
H       11.24619497      21.58457928      85.78794723
H       11.26119432      20.71230038      87.11278595
H        7.30638215      25.52370774      87.95245149
H        7.63758187      27.00163241      88.18089593
H       21.84399989       8.73115711      67.52026791
H       20.37862145       8.27453462      67.50932947
H       31.78636032      -0.08219156     108.30137771
H       31.64506194       1.03316485     109.44055302
H       10.32958409      20.05307288      66.68142570
H        9.78994221      18.91247674      67.57725355
H        7.01351273       5.10322566     109.26316774
H        7.80085186       6.42887401     109.21615165
H       19.24625675       0.70282651      58.69664580
H       19.33198752       1.70299175      59.84454097
H       30.70362996      33.68679485      98.58398803
H       30.81997490      32.50776836      99.54963955
H       29.65435176      27.29979448      83.97095754
H       30.29926345      28.50583433      84.66424612
H       22.87860655      11.78613843      72.01226859
H       23.97187654      10.86720679      71.38395733
H       19.77767041      15.97019905      56.99028306
H       19.84155509      17.51362417      57.21031890
H       12.69043597      29.34868134      64.65005607
H       12.85633639      27.81079867      64.65302885
H       12.40997082      30.25849644      91.40496398
H       13.66610282      29.63334381      92.16692804
H       21.04971214      13.57788057      88.34049819
H       19.97362609      13.70990282      89.32500596
H       26.86004931      26.04162101     107.30358679
H       28.22001810      25.92084492     108.15119395
H       22.12296882      11.59428805     103.10025770
H       22.06034630      11.52944963     101.56094333
H       14.56650160       7.63881809      73.73157278
H       13.23601474       7.23978655      74.22801749
H       24.06032514      12.73999247      92.98427366
H       23.53257376      13.91654173      93.67459676
H       33.05660394      25.19801325      99.85324506
H       34.10025248      26.20883364      99.52619134
H       20.58051628       0.19657369      56.77030320
H       19.13971010      -0.10872859      57.39802870
H       31.18605611      28.25180650     116.74725270
H       30.05395783      28.00566676     115.67143027
H       17.33163467      26.98670708      55.04281515
H       18.13327403      27.30921864      53.72377246
H        0.99152792      31.97777341     108.70407720
H        1.14982807      32.08968226     107.19050508
H       22.20663349      14.74582942      62.76777313
H       21.49262073      15.97982002      62.17632525
H        4.15782977       2.48344756      86.48038765
H        4.29099931       1.41479502      85.48326620
H       11.42114142       8.90023745     110.49226598
H       10.28996588       8.05197484     109.96441594
H       32.11061653       0.50262153     118.55540221
H       32.67378100       0.13432350     119.93959125
H       17.26006686       3.43897925     104.48268779
H       16.90115752       3.60753927     106.02866468
H        9.37136112      24.50078657      54.45790502
H        9.93022497      24.62691411      55.89771508
H        5.25501228      15.34278891      77.46055498
H        4.66614754      14.90628072      76.08297171
H        8.98673872      28.51763610     102.00391872
H        9.50533915      29.34881532     100.87336092
H       21.81205072      18.17725226      87.92585664
H       21.36105258      16.81175658      87.80607079
H       19.72817933      10.90477949      64.77545712
H       21.08183847      11.46401818      65.28312254
H        3.83689392      32.44872066      62.56219930
H        2.78150285      33.45714750      63.01704084
H        0.07096091      19.00734244      94.06511359
H        1.52131331      19.22436352      93.59502721
H       19.20474321      31.46554540      91.20063382
H       20.53727914      31.63957638      91.98656599
H       11.23101334      12.19399821     117.83423886
H       12.29817324      11.87456058     118.82745041
H        0.71854856      11.36975250     115.22820639
H        0.96302064       9.83177021     115.30997763
H       13.76256333      11.39311588      98.09843642
H       14.95847294      12.00272095      97.26618130
H       25.42983565       5.39652649      59.52314909
H       25.46503237       6.85305729      59.72134990
H       32.33232806      10.99056273      58.26271390
H       31.77366720      12.35781946      57.77602862
H       18.55591132       5.66094374      83.72110242
H       18.06618044       4.85156103      82.50522462
H        4.84784809      16.14373932     105.80637089
H        4.91386646      17.54044502     106.37569692
H        9.87476538      22.14782843     112.22281442
H        8.51620526      21.50600270     112.58909605
H       30.75711662      17.26732365      75.66050779
H       30.25278175      18.56861108      74.94009692
H       23.14590037       1.19607959     111.06676781
H       21.72554420       1.72374297     110.82341673
H       10.24894579      18.48687645      64.31667043
H        8.80246681      18.37569190      63.81265270
H       22.18478691      17.00486562     102.89398357
H       20.77416360      17.68896685     102.50345397
H       24.26379541       7.63792594      97.19619045
H       24.33518121       7.43850543      95.64523763
H        4.16245272      23.54727553      69.41990688
H        2.67889984      23.74816843      69.78113015
H       12.08942792       2.53242693      71.54502193
H       12.75307021       2.89058061      70.16305469
H       30.32659982      17.90601874      61.02747000
H       31.20693378      16.75205759      61.47204729
H       29.74093878      14.48711489      70.94202006
H       29.01223083      14.09533971      72.25801110
H       20.93255825      21.59635562      89.54382501
H       22.21637185      22.09757063      88.87831558
H       24.93864565      31.07725326     116.42739308
H       24.23267953      29.72219936     116.15340763
H       15.87093676       2.01445528      89.86731346
H       14.35914340       2.27278631      89.79279386
H       21.09118440      12.27456439     107.43675883
H       21.18817719      13.18805003     106.19190439
H       27.93532147      26.91204051     110.53779057
H       29.38224112      27.40006120     110.29918796
H       20.91567368      30.51433712      55.40428149
H       21.80242617      30.01941929      54.23677185
H        2.41128762       3.86237205     102.13918437
H        3.44038866       4.83168512     102.60690260
H       21.38300560       1.22108023     114.87209469
H       22.74719560       0.56281658     114.50987367
H       14.32063338      27.77589478      94.17233785
H       15.53845006      28.22542353      93.25120753
H       32.62589212       6.34867982      91.41355410
H       31.97833466       7.70639663      91.71216038
H       32.74364328      28.31996197      65.58558736
H       33.29512840      29.20286939      66.76926441
H       22.80586803      33.37836053      92.37807939
H       24.04131001      32.42338854      92.54452173
H        7.37271660      12.56789731      99.66612358
H        7.73268518      13.31183768      98.38549616
H        1.82863624      27.98177466      84.21905206
H        1.17082199      26.80627917      84.93145545
H       31.73868335      20.83800045     103.34844958
H       31.40569282      19.39319023     102.76738507
H        1.58535719      23.61528907      79.19893422
H        2.69187805      23.97791468      80.16188231
H        5.54157791      21.96626963     104.81256602
H        5.18446770      20.46308339     104.82021301
H       14.92859559       4.52449423      72.65776822
H       14.71302893       4.13136054      74.09750119
H        4.22329223      31.03028064     105.68647985
H        4.72942985      32.39178359     106.18647691
H       19.82974571      13.28589978      95.23081201
H       21.17299935      13.77549564      95.57259504
H       15.05524382      28.76362951     117.45884809
H       14.09870526      27.61295178     117.62169695
H       31.01141317      31.34439698      78.41109735
H       30.84389290      30.90662966      79.84913469
H        2.62028867      19.43728034     107.41850664
H        1.11842037      19.30214047     107.86849793
H        5.17504273      14.11232145      79.67068374
H        6.07320715      15.32004131      79.93142008
H       11.73753956      25.45744232     106.79459458
H       11.74225602      24.09838558     107.61991766
H        1.50893150      28.08267975      75.17660438
H        0.16121621      27.88776871      74.45055372
H       11.34735312      29.03910748     112.03740452
H       10.77234774      29.56837234     110.76416507
H       28.55698934      15.88342190      96.74464069
H       29.63835731      15.59155526      95.74756832
H       16.35070416      27.75132735     101.01691319
H       16.01924089      29.27624775     101.23044558
H       12.90351885      23.31499319     115.16766840
H       13.65674081      24.67698828     115.28666885
H       17.44843266      19.70336963      53.84116735
H       16.36922764      19.27235058      54.86812649
H       16.26819088      31.06305962      82.54248739
H       16.67919112      30.94337013      81.11471995
H        0.97823697      12.90450359      59.15797277
H        1.74872498      13.79088033      58.24901842
H       11.97189023      28.58647177      99.02392831
H       13.18984450      29.46069761      99.42534044
H        1.05713076       1.96017233      60.59044582
H       -0.09636135       0.99551251      60.97409148
H       21.06125772      31.41333866      63.93705298
H       22.31042573      30.54530966      64.00193992
H       32.20106406       5.95818749     118.34924477
H       31.55639773       7.28049897     118.04914821
H       15.15313021      11.29998728     109.51573265
H       16.02934513      11.86941464     110.66143505
H       24.30303152      29.34543886      93.95471191
H       25.60877077      29.20198554      94.74765573
H       10.78218892       9.31781742      67.67894742
H       11.82373550       8.10933358      67.87940386
H        3.32904267      28.16344961      83.10170144
H        3.40580487      27.57721615      81.70787232
H        1.22284735       2.83905371     108.29245429
H        1.73318274       2.49224831     109.67506491
H       21.54771078      14.98221838     110.98151291
H       21.53287507      13.61098809     110.22368652
H       20.32224545      30.63683245      77.71864375
H       21.02027028      29.64670512      78.65324652
H       17.01536868      21.47583369     101.41248915
H       17.87457803      21.45054464     102.71080998
H       30.91371077       9.68457209      56.81248974
H       29.49599146       9.98810630      56.18496480
H       32.08100728      13.86951576      84.81462129
H       33.16985503      14.87317759      84.65722189
H       23.44344099       1.18079587      79.07683729
H       23.19749844       2.67646621      79.41052561
H       23.20922583      23.49174866      77.14564335
H       24.43567440      24.32751436      77.65872180
H       26.52572941       3.46467095      77.34681743
H       26.60322206       1.95997855      76.83580134
H       25.92212480      16.44164769     114.58561177
H       26.62812286      16.44421435     113.16038718
H       10.61318490       4.04067577      80.53515377
H        9.96763553       4.62328199      79.23329579
H       21.55330199      27.24893124     110.94545408
H       22.54521488      28.28778299     110.35849737
H       14.73734394       9.50803598      66.94862754
H       15.15714281      10.91901100      67.37546934
H       15.21958014      16.22081256      59.57766813
H       16.25674394      17.03155600      60.46712211
H       18.96407783      20.15932012      97.99280736
H       18.07875527      18.89139973      98.31501882
H       14.72911381      32.77853173      87.62409022
H       14.78554616      31.38395831      88.16913839
H       30.84987871       3.76310425     118.18563311
H       30.46155964       2.37196194     117.62262490
H        0.26916974       9.79046787      75.39648389
H        0.65053631      11.30128471      75.38662653
H       24.22139443      28.89444022      82.17405289
H       22.84805309      28.18104706      82.43479178
H        7.75765095      19.17153873      63.14900621
H        7.29550560      20.63539995      62.90916943
H       13.18371388      10.72732517      59.61136440
H       14.00679866       9.42271751      59.76906773
H       22.92334518       3.37073202      59.69425279
H       23.81238219       4.40014368      60.41495884
H        3.86256099      12.92277662      94.41142867
H        2.59866883      12.24744663      95.03458820
H       22.15688525       4.73805646      73.69418725
H       21.16231174       5.16499965      74.72276123
H       19.88741077      23.64154393     100.21137751
H       18.57625674      24.04911844      99.49621785
H       20.09521061      28.84438801     103.49378811
H       18.73278012      28.44769958     102.84275019
H        8.22831299      33.14096314      63.61946647
H        7.53658467      32.11499339      64.57556416
H       21.94075757       5.54664050     118.83322370
H       22.73558383       5.19508584     120.09720075
H       27.75956279      19.36253098     114.70782222
H       27.40677723      18.87691358     113.35853295
H       13.66196272      15.09516626      63.89675657
H       12.96091437      13.87995580      63.31912013
H       25.60749184      30.96921751     113.06044837
H       27.05525190      31.56905579     112.95813194
H        6.84085371      32.29328958      99.95463550
H        5.45518476      32.57952034      99.30446163
H        9.56350261       0.12339408      69.86863938
H       10.72311610       0.21468104      68.77477096
H       24.91607697      17.61113363      79.51840515
H       25.25604656      17.36643665      80.91276247
H       27.76811777      23.48582797      60.94775415
H       26.41396781      22.87592272      60.58314982
H       26.61760696      19.81973683      90.36425904
H       25.45026219      18.90949562      90.77545861
H       13.75431288       5.99990316     118.84339402
H       12.52647318       5.19969758     119.04835114
H       10.93335775      22.97877634     104.40061392
H       10.80370226      22.51272442     102.94154367
H        6.21939185       1.39353763      68.13641426
H        5.54161964       0.87601910      66.83361812
H       25.71860177      24.07996038      68.50107156
H       24.75520197      25.14753503      69.03886051
H        6.38901332       0.66450373      77.32397731
H        7.49766826       0.00366757      78.15070649
H       16.23788517       9.52686253     117.53288772
H       16.88580302      10.86502919     118.04570568
H       13.41789596      17.52050612      66.49031976
H       13.27525463      17.89870927      67.99077109
H       24.95976377       7.09793322      74.75063497
H       24.85001456       5.58240271      75.22749491
H       29.75833411       0.51574472      65.97210314
H       28.66335103      -0.13926167      66.84125111
H       11.98732362      30.70515978      84.35950816
H       12.68190541      30.33974959      85.65224627
H       -0.25119989      28.63780000      80.94227827
H        0.19888967      29.61504938      79.87246443
H       24.86830333      28.34956961     104.84459818
H       23.69900947      28.79099359     105.66815695
H       24.88429192       5.67746564      82.16461491
H       25.03057953       7.13293523      82.55553410
H       31.59078608      30.76041245     116.49955960
H       32.11520907      31.04447047     117.91317333
H       22.91981706       7.51242096      91.16615346
H       23.64036134       6.69288847      90.01503386
H        9.12607669      16.52155410      55.38924005
H        9.14425579      15.03220053      55.70106562
H       12.00217821      27.21870640     114.36429940
H       10.70279927      27.08180765     113.52432668
H        3.20351331      22.93204219     102.81574567
H        3.00557786      24.29203151     102.12741796
H       29.22014817      33.62518351      70.49652637
H       30.32978884      32.96062175      69.58535598
H        3.41857156       2.41585181      98.35542073
H        2.75840686       1.31535511      97.53784652
H        6.00168445      16.79489235      64.82385507
H        5.64351219      16.10785900      63.53488064
H        4.61324304      10.20351670      71.48952083
H        4.07884733       9.24659444      70.41368193
H        0.53467366      24.94825126      63.11238180
H        1.46887917      24.17184773      64.08067403
H       14.34646548       8.85742498      69.28502321
H       13.50301817       7.69646466      69.07701109
H       21.36119761      21.06683679     111.57480250
H       22.38463581      20.57495190     112.66117424
H       32.83315296      24.56492291     101.30173335
H       33.05020047      23.58955838     102.42133641
H       19.16630090       3.60832352      85.81898338
H       20.07779509       3.27732780      86.99060110
H        1.64815389      10.45386919      55.08577893
H        2.66636327       9.52000986      54.40436076
H       10.34814860       0.60213259     101.90112912
H       10.36755029      -0.53167519     100.89199035
H       13.14446200      26.35401016      82.03237636
H       14.45826429      26.43452284      81.17795115
H       28.08925793      33.74794741      63.94000075
H       27.16670702      32.58400218      63.70765886
H        9.53276141      16.11235352      93.33434767
H        8.84446468      14.83922587      93.83256766
H       12.74342537      23.68880730      90.11497448
H       13.16487910      22.41917458      89.33147437
H       18.33040518      14.88921905     115.92158087
H       18.25312598      16.34047046     115.32300223
H       33.13655785      24.22535489      88.99184251
H       32.23262542      24.41534245      87.78335600
H       18.52755240      27.99450214      85.03673083
H       17.68607028      27.96452438      86.37086193
H        4.01721017      13.61997913     112.76002271
H        2.84362228      14.57341699     113.08955124
H        7.47681462      12.80298624     114.75511823
H        6.16238154      13.02804449     114.01348431
H       16.48995454       1.93510055      96.31307950
H       15.80980995       2.14572670      97.67371092
H       18.57856950      21.96357583     109.57981956
H       20.04168971      22.24037657     109.13843609
H       32.22352783      -0.46807217      60.22403121
H       31.56293226       0.90797174      60.46037835
H       27.70739187      24.08466424     114.73868203
H       29.11293485      23.95779642     115.39149001
H       19.03406168       8.88736286     108.86085709
H       20.06913666       9.26549319     107.80634851
H       31.49328874       6.62851245     109.91169345
H       31.87624122       5.29791449     110.65258522
H       23.79912396      22.00247492     115.67236714
H       22.84545594      21.06612465     116.48338728
H       30.45471172       8.12473280      99.54454991
H       30.63034637       9.14574861     100.71880233
H       27.17108497      15.06627111      65.94293020
H       26.60941025      16.43728285      66.49522443
H       32.37208124      -0.46634433      91.16961231
H       31.68902064       0.81491315      90.92393952
H        0.73403841      27.90944798      71.20394993
H        1.20185675      27.61325292      69.77767653
H        1.41441764      16.52289073     104.99222855
H        2.87111591      16.75027096     104.51449847
H       27.60928031      26.57536254      69.93015438
H       26.90931249      25.64524890      68.95140312
H       27.83645949      12.14298992      63.03297990
H       26.32702676      11.87048272      62.96535677
H        9.76311858      11.52598062      54.97913396
H        9.16603748      10.88081929      56.25758025
H       29.41135727      28.03758692      74.60956957
H       29.04935505      29.33875105      73.93409676
H        8.36838058       1.82963632      55.93629451
H        7.84853249       0.92407326      57.08305068
H       16.33416066      26.89079866      96.51695656
H       16.93137735      28.11300430      95.98527612
H       31.03401850      23.81008126      94.18989006
H       30.15800626      24.07723793      93.04485211
H        7.45758425       9.02051408      68.00160832
H        8.18055051       7.92477873      68.79798225
H       18.54814233       8.86520346     103.09567151
H       17.48045823       9.80002079     103.76157362
H       24.98690653      23.41484556     104.68086645
H       25.48938262      24.43952267     103.64269325
H       12.13642643      23.18360581      79.70126024
H       13.35197283      23.86843027      79.05294876
H       26.56241827       6.38878870     112.49549656
H       25.23842807       5.71304031     112.15411989
H       22.90459321      28.88747270      96.97273147
H       23.64198588      27.53691815      96.79077654
H       30.76166065      32.52983445      76.48868299
H       32.23064138      32.02975108      76.36719189
H       21.03430438      11.51998173      79.46117763
H       21.52879653      12.20913841      80.71771060
H       33.95850649       3.45756463     116.42911573
H       32.65816067       3.88987864     117.10159077
H       18.03729707      14.38482922     114.22268747
H       16.70643709      13.70987856     113.69977600
H        8.04723477       8.62143959      95.29401108
H        8.32911968       9.93553070      94.61182188
H       16.02602407      14.05600788      59.85881488
H       14.56976319      13.52414645      59.60159137
H        6.59645633      24.32110083      95.56240869
H        6.69771893      24.78479128      94.10783692
H       18.64365098      20.75221448     115.46847841
H       18.86555204      21.21864677     116.92089954
H        3.94719038      12.07279710      62.89652612
H        2.83508419      11.63930909      63.88891767
H        3.95840395       5.13973743      74.61848736
H        4.66216225       6.46725761      75.14596712
H       19.11325395      10.75395004      85.66453945
H       19.77890787       9.59427705      86.45752905
H       23.16442029       6.19785471      56.37264783
H       24.53412152       6.85174697      56.34627175
H       24.23970927      21.26712409      57.68957090
H       25.37034689      21.52515166      58.71442749
H       17.52354344      31.71803135      96.36113869
H       17.72016424      31.24475650      97.84655976
H        1.97401707       2.35741588     111.62855958
H        1.26595481       3.69290930     111.85451731
H       25.25451751      30.92581289      84.48369254
H       24.10720564      31.93719945      84.41202381
H       14.85950347      13.08022798      82.86812805
H       13.83838453      12.81046644      81.75322485
H       12.95769236      10.56212921      83.97884964
H       11.88227034      11.44894657      84.62406808
H       28.74358291       8.73203963      69.21042738
H       30.14057900       9.35831250      69.12870465
H        8.07574510      17.22211075      85.44813223
H        7.08001826      16.59039328      84.36459128
H        7.68428057      29.60258185      63.14805672
H        6.22479321      29.09014970      63.29305651
H        9.43689268      12.93290153      67.15075639
H        9.61838809      12.30925140      65.77103188
H       17.57697104      22.77600244      97.14452692
H       18.70074417      22.06651553      96.36987563
H       23.46006440       4.68755970      77.89260621
H       24.27268201       5.46277460      76.86158730
H       19.98672638       5.64703510     106.29971734
H       19.16259955       6.95236757     106.51956107
H        3.94148712      19.66171086      96.33591300
H        5.15785691      19.74846497      97.25384788
H        8.53979073      27.55015682      72.67504549
H        9.90535338      27.14101805      71.90688159
H       15.69634075      17.03440033      75.27840132
H       16.90763599      16.14498879      74.90128134
H        2.78938165      14.83638062      80.12406479
H        2.98497821      13.47671176      79.37404872
H       26.16056528       1.20741483      54.49956718
H       25.82847294       2.57460910      53.88766985
H       29.96530463      26.88010765      76.96056997
H       30.37969848      25.61712890      77.59185214
H       24.43144647      28.46154854     102.00988737
H       23.31147097      29.39159233     102.33293909
H        5.42424520      24.68867916     100.11043071
H        4.51869778      24.17906639     101.19849832
H       32.19314805      28.17035870      55.65197844
H       33.04993845      29.42224634      55.95208762
H       34.05542691      17.58258332      95.03953222
H       32.64915750      16.94557665      94.83565118
H       16.18494327      12.65756540      87.91600287
H       17.75348319      12.69865432      87.97670736
H       10.63372434      12.22110140      78.99255373
H       11.87409540      12.22530406      78.05171233
H       23.41510812      20.32417597      74.01878133
H       23.10888185      19.62759124      72.69349992
H       26.34206075      24.19106145      86.94235294
H       27.61834078      24.74649051      86.31714392
H       18.99235191      26.66623953     106.92282053
H       18.80600010      26.69301382     105.40606097
H        6.08841619      32.57079166     118.71986347
H        6.55585680      31.13229642     119.07377178
H        5.02856417      22.41449395      82.33620730
H        3.67080397      21.96815105      82.84186470
H       14.70638842      13.77171410      71.17893361
H       13.96081520      14.30796609      70.02308526
H        4.32287784      20.58576341      86.99989827
H        3.17200951      19.86272663      87.84255465
H       14.11667396       0.58988328      73.11912219
H       15.02869350       1.56058821      73.91583845
H        7.31861257       1.94036539     118.81043273
H        7.47517200       2.99499528     119.92732768
H       27.84896271       7.69388232     110.79024153
H       27.53567325       7.77485800     109.27493487
H        5.08687995      21.65881729      74.38894652
H        3.57844914      21.21541358      74.53059147
H       20.83616981      11.14717005     112.24465898
H       21.93950868      11.97996034     112.95826932
H       13.41670885      17.45771186      86.37949150
H       14.18201344      17.45546995      85.02903527
H       23.48642985      26.93154862     100.41636560
H       24.82504129      26.31237671      99.88213368
H       20.54679007      32.68524832      80.47002071
H       20.06812307      32.75239934      79.04724487
H       27.30450110      30.56701791      68.00239838
H       26.32283664      31.31167362      67.12321795
H       25.45582804      20.41824833     107.78783629
H       25.81756529      21.71664912     108.51877707
H       22.63214255      23.64993533      64.46279245
H       24.01895538      24.19205281      64.79968490
H       29.01074550       5.56126408     116.39506911
H       29.68387212       6.66701487     115.61821380
H       25.93294373      15.49634023      94.43796275
H       25.77908651      14.31653574      95.34009897
H       11.11991554      12.40197934     113.48348285
H       10.96430548      11.11626707     114.29305614
H       11.03900417       2.18672050      96.35023378
H       12.07209076       2.58717766      95.23794139
H       32.88378580       9.90586252      63.19527054
H       34.00861026      10.04677410      62.12355764
H       19.65384505      18.29189423      73.72317023
H       21.02853869      18.02420578      73.08731222
H        5.65862604       4.44300414      88.21715482
H        4.34666187       3.73311972      87.77760323
H       29.44516750       9.48785446      73.89032661
H       28.96432895      10.01015761      72.54106646
H       11.97065684       4.30896787      82.61588882
H       10.83426452       4.87846962      83.37970900
H       21.41473329       7.45368561     100.22129103
H       21.78997563       8.10989036      98.90822989
H       27.89678778      24.81382773      67.99731792
H       29.35416142      25.04396680      67.57914019
H       15.83354402      26.60628507      88.51350621
H       16.28510682      25.25197813      89.07995914
H       17.63234585       5.23424386     103.22377739
H       18.91450074       4.87321935     103.94773914
H       28.57965916      33.02268231     107.09256181
H       29.43432080      31.79293900     107.32435285
H       33.01343869      -0.40787686     101.12804916
H       32.47500769       0.75678575     101.87232323
H        2.68584598      29.76878568      79.33638823
H        2.58592670      31.27310538      79.18314685
H       23.32138608      29.41503613      90.73289545
H       24.37484769      28.85865415      91.64389680
H       20.63835439       1.86682945      53.53616170
H       21.88573309       1.06163739      53.93668688
H        2.46257636      18.75721463      92.84479860
H        2.11378749      18.26897463      91.48880457
H       18.77562775      25.91817218      60.04013541
H       18.98432754      26.95180037      61.17276579
H       28.43285786      20.26335301      98.51690369
H       29.17519711      19.88570868      97.22190540
H        1.61103346      29.50836632      88.35420022
H        2.16130719      28.68566364      89.53093131
H       31.79396816      13.25369881      99.27910301
H       32.48309693      11.98145276      99.76417036
H       18.24406672      19.52848289     105.32042695
H       17.21168980      19.32784479     104.21860600
H       12.47478255      32.44342333     112.31308865
H       13.29395663      32.92487733     111.12058694
H       26.81367762      15.45173227      59.22537216
H       27.47320257      16.17743631      60.40672937
H       26.31520920      19.06788974      95.34826287
H       25.53034443      17.87548398      95.91977454
H       10.13185456      14.44207611     111.64081685
H        9.97198200      13.30057159     112.60761941
H       16.70394626      30.63875186      64.12515314
H       15.36639895      31.09167513      63.54673488
H       15.20060127      33.72578938     106.51129179
H       13.76779078      33.17174706     106.44437331
H        5.77268016      30.26491850      57.15359054
H        4.71661864      29.95483070      56.07071509
H        7.03664028       7.22929785      99.97980930
H        7.38167561       5.93443017     100.78451201
H       18.42464896      31.32188225     105.03096367
H       19.77953904      32.00577177     104.76242023
H       32.83273376       9.36742775      98.19152059
H       33.45286421      10.34277630      97.21253411
H       15.80238205      21.80886847      75.34591305
H       14.68441895      21.68300772      76.33991460
H       26.03697070      20.73088251      66.48678436
H       27.08855336      19.64841609      66.27171058
H        3.50483436      21.31795324     118.87255759
H        3.34101922      21.55869252     120.43934737
H        3.58556012      12.11343915     115.76243774
H        3.76031642      12.81284919     114.40233866
H       22.74320286      25.52059705      79.49182283
H       21.70077180      24.37686169      79.30843453
H       23.24449090       2.08933396     118.95143335
H       24.26532368       2.61399259     117.93859375
H       20.52861803      20.17359115      60.18546161
H       19.89488382      20.56496029      58.90696333
H        9.89820936      11.74788430     101.79005883
H        9.56378012      10.27617845     102.11681153
H        7.05345938      24.64498436     113.25768982
H        6.63407646      23.29537895     113.67497285
H       27.28062257      15.61016410     119.19595225
H       27.32349293      14.11455902     119.35284640
H       14.67767090      32.91927818      76.22155137
H       15.49723825      32.93324234      77.52425630
H       22.62750301      -0.21615855      62.12096511
H       22.36146977       1.27032652      61.63715779
H        3.94725194      17.99042353      76.09219950
H        2.45949894      18.45932932      75.76059234
H       14.22765977      23.33709750      86.57077327
H       12.82055877      23.64431207      86.04367197
H       16.47654511      19.71783188      73.17573501
H       16.64897600      18.30157757      73.80388579
H       -0.61342310      24.10722250      57.55667528
H        0.87246610      23.70530029      57.60319211
H       28.72633050       6.22484293     101.14923861
H       28.02324083       5.73090286     102.40605169
H       19.02845309      22.80995552      78.48817742
H       19.19512413      21.76002921      79.55105708
H       21.08380914      10.26047955      59.81671152
H       20.29689628       9.87468463      61.12448970
H       12.93822417      32.24621865      65.30258778
H       11.99347834      31.10991086      65.72588623
H        8.48155202       1.89769716      95.49063058
H        7.40592511       1.48856124      94.58075445
H        3.34014961       9.22719891      55.39859079
H        3.89727125       8.42925612      56.52209895
H       29.97233668      17.17426228     118.91310786
H       31.16974353      17.87284102     118.57546417
H       19.06561163      22.50261101      55.68144292
H       18.52129165      21.18040140      56.31566352
H        9.45508276      21.81690709      96.21433728
H       10.02279704      21.05189689      97.43770177
H       21.28265091      12.36394620     116.26714332
H       21.61251270      10.87097959     116.05166332
H       25.13093903      32.23349519     103.17495795
H       25.14856030      33.54141130     103.96192861
H        1.96991238      33.24267387      78.29412451
H        0.89253004      32.04192748      78.32528059
H        8.94776083       4.08684906      73.92076005
H        9.70602043       4.91449975      72.85613078
H       15.98029324      22.87921935     119.26123015
H       15.98150818      24.37067255     118.73057186
H       24.36648998      27.42019904      56.22844186
H       22.92319597      27.83657492      56.57174298
H       10.81069137       3.89824469     113.36855498
H       12.03107357       4.43243101     114.14315521
H       15.16790195       1.13307834      57.10708531
H       15.02272585       2.29224091      58.16864706
H       26.46355410       5.63555759      92.98817463
H       25.61420468       6.63986882      92.18328296
H       30.62846680      24.04052542      55.74793293
H       31.67029080      22.94180832      56.09697407
H       10.55103448       7.13995926      93.28705467
H       10.20522279       7.15250320      94.73976624
H       12.01345043      14.41654223      90.43252508
H       13.33631763      14.30861102      89.66770183
H        3.12463600       6.51051995      63.52891703
H        1.83269655       6.33616550      64.39211635
H       33.67529858      29.56739112     115.52072076
H       32.88203589      28.63658774     114.58335591
H       10.08705245      29.38928753      97.81543428
H       10.72466431      30.26560793      96.72660358
H       21.98798168      28.45418720      66.74644248
H       21.87682104      27.31627420      67.82100403
H       20.84743107      24.29381683      61.20173994
H       21.76406106      25.43527323      61.67087981
H       15.09481415      27.18787530     104.13700018
H       16.01418137      26.43445448     103.15387777
H        1.56532626      19.10528089      63.09376618
H        0.40441029      18.24589414      63.12812462
H       29.71374110       1.58222998      83.13803146
H       29.58923866       0.36669730      84.07063240
H       16.90536296       4.07683314      88.81212202
H       17.52426393       4.28414394      87.51377920
H       16.95436786       2.01938558     107.47297860
H       15.76046377       2.61960909     108.35795530
H       31.51959603       4.05485074      64.09523525
H       31.17380331       3.47604956      65.47428878
H       31.47421156       0.36375816      55.89648035
H       32.93864937       0.84823573      56.00804000
H       10.61171069      23.38410881      63.92251984
H        9.89712539      23.07056493      65.25810425
H       10.80908335       5.79217543      69.44336616
H        9.50870367       6.25777857      70.07068185
H       26.70023002      12.42668145      71.62174971
H       26.63923226      13.67491289      72.62334683
H        5.62144022       0.49171003      74.64774189
H        4.82645176       1.67668727      74.42539973
H        3.26229596      28.50998611     116.84725483
H        4.41847667      29.25491760     116.09898260
H       25.74492178       0.73989456      72.43677028
H       24.31636376       1.25457092      72.30368667
H       27.81108266       8.36578230      58.45186711
H       26.32161832       8.25283574      57.95819499
H        1.37364869      10.13287548     111.65637823
H        1.68133488       8.64866711     112.05918309
H       17.31977410       6.28452505     106.75523559
H       16.96431291       6.93260189     105.43695090
H        4.65373987      30.09618681      97.45296617
H        4.31566087      31.56194709      97.07290947
H       27.51555051      26.73092134      59.49157730
H       28.06316440      27.52233055      60.74419777
H        3.01373406       2.88349079     118.02733940
H        4.13860205       3.91171338     117.73977489
H       24.84093781      28.00833576      79.57353948
H       25.82992441      28.86942465      78.83079142
H        4.71500070       8.18892594      66.71493508
H        3.40558391       8.81878324      66.32701125
H       26.85228124       7.83430632      71.78633474
H       25.94425425       6.60240016      72.01122621
H       12.37201459       8.67453663     116.22251034
H       13.56351166       8.43616345     115.21714821
H        4.56123122       6.62698499      60.74101173
H        5.85260527       6.84387254      61.44471227
H        0.47952968      12.18731048     114.16624045
H        1.64404057      13.13195802     114.57147045
H       29.19540215       6.98693179     105.93835767
H       30.12702331       8.00277446     106.61952682
H        8.45190795       6.51591827      64.91438721
H        9.68299158       7.11071207      65.60346200
H       31.20772079      30.35169504      72.05812495
H       30.37207323      31.61799847      72.15570918
H       31.26556874       7.02591624      60.42755100
H       32.30135537       7.29204261      61.52607543
H       20.87620370      14.98200829      64.36849074
H       19.65148284      14.31518044      65.07765825
H       15.33401123      10.72439677      84.57379772
H       14.83192421       9.43609770      85.28083317
H       32.87869258      21.50301178      88.13719215
H       32.31134703      21.67096004      89.51358337
H       21.33167215       1.34037355      74.57951694
H       21.19139349       2.17440016      75.90707694
H       28.21607167      30.76106448     117.97127712
H       26.81092736      31.45125489     117.96597103
H       27.75767896      23.88719713      54.61910400
H       27.36153889      23.09048638      55.85150379
H        5.77383925      26.42367263      71.94998504
H        5.34319499      27.25348733      73.19174594
H       29.41990827      26.88562529     103.03383045
H       29.27835157      26.39154757     104.48603914
H        3.13032016      28.95174695      96.34595960
H        2.55483747      28.43785578      97.69159256
H       13.76852339      19.44172593      72.52904175
H       13.49559688      20.49067342      71.44276817
H       30.93811700       6.62898281      54.41943717
H       31.41724926       6.50176327      55.85926534
H        3.86178431       7.88723928      64.46986541
H        3.69520756       9.39853249      64.74701341
H       23.77519596       7.13687146      98.91227011
H       25.23104449       7.53311408      98.73307240
H       16.18024493      26.50555071      57.11234506
H       16.41057968      25.52478490      58.25977697
H        2.10021018      11.67264305      70.13796678
H        1.31326668      11.18725339      71.40559062
H       11.02157970       5.88130759     116.63959669
H        9.66561392       5.53703979     117.17191173
H        0.85888348      30.68013227      71.93255129
H        1.98521214      31.51008435      72.57749169
H       10.06793874      19.32898082     100.59600490
H        8.73882537      18.70831414     100.03766341
H       16.33998412      29.59088996      72.28505865
H       15.51493249      29.37154951      70.99818870
H       20.97001779       5.31931369      92.30518145
H       20.69024925       5.93748562      90.85904792
H        5.69078090       8.40097140     101.84599198
H        4.25075605       8.70391925     101.39724294
H        8.33629203      16.55714715     103.87160026
H        8.89277327      16.95214775     102.51214947
H       15.62950748      24.39684256      97.14461301
H       14.32195375      24.48650997      97.98871768
H        2.63815850       2.61485202      75.47668291
H        2.86516091       3.16657451      76.89437755
H        9.78126411      31.63089999      84.01797305
H        9.99855189      30.12118182      84.35706569
H       21.95525319      14.24855221      56.31289140
H       20.65725113      13.81448260      56.75634307
H       17.56403825       9.47142668      75.57680690
H       17.94028699      10.76960272      74.85410889
H       27.54127027      13.13746988     102.31024526
H       28.97365388      13.61009849     102.09060175
H       12.55162582      26.11009341      54.07964137
H       13.58491224      26.50035475      55.19294544
H       16.18507225      20.81681704      59.98071540
H       15.31204499      21.77916685      60.67118750
H        5.06379795      22.29590360      62.51796667
H        5.26239282      22.88081258      61.04894594
H       26.05112263      29.97521339     100.82151540
H       27.56011076      30.23199480     101.16414791
H        5.32079109      25.04701118      82.95920867
H        6.15611492      24.57119902      81.72834419
H       24.25941158      23.88103959      57.05358335
H       24.63657274      24.74328923      58.24022094
H       23.45682358       4.48423400      67.62084645
H       24.51536724       3.69232441      68.34836803
H       10.78326178      15.63773429      72.08581392
H       10.80184749      17.18608792      72.02447032
H        5.73271158      11.47100350      98.64244141
H        5.21673031      11.90325148      97.24440333
H       15.20285490      18.54240546      97.35284045
H       16.46752952      18.89380683      96.68593412
H        7.68247899      21.94745987      90.80826236
H        6.69406376      22.53657549      91.86897400
H       25.77431683      32.21154579      70.64003532
H       25.80016039      30.78271889      70.17091875
H        4.81526380      27.92747359     107.05582525
H        4.52364531      28.21036249     105.56711413
H       33.09776693      16.49453479      76.33751803
H       34.14552235      15.53128344      75.75252143
H       20.51871880      23.06961683      64.07553036
H       21.14328564      22.72687515      62.69602885
H        6.01474296       2.28808733      70.62395462
H        4.76938416       3.13993960      70.94825794
H       25.34686171      24.50790816     111.74272984
H       26.52653390      23.79914848     111.04093474
H       24.49005484      26.22132789     110.83175253
H       24.10071794      26.71135497     112.23799485
H       20.68630690      14.12102753      59.65522741
H       19.51809156      15.09552016      59.18401044
H       22.61653201      26.31786045      72.57942276
H       21.04471800      26.36848994      72.35857086
H        5.91784133       1.42782837      79.48355335
H        6.22499624       2.82590084      80.16616369
H       29.81262490      30.07553708     101.85512241
H       29.72362683      28.66104538     101.78855199
H       32.59916737      28.71243986     105.00679699
H       31.55981739      27.58794224     104.77416229
H       31.44737791      15.92885077      66.25028404
H       31.34299123      15.03190525      65.03912411
H        5.55873848      10.52699991      83.22390896
H        5.27535719      11.68159986      84.22850196
H        9.49382385      17.13507317      97.70949772
H        9.56474227      17.49909427      99.22155302
H       15.70757616      33.41085314     112.98103258
H       14.65546058      32.34813721     113.56884829
H       26.66939175      10.97530739      69.26308337
H       26.58620145      10.41144328      70.66564167
H       17.65914984       2.02720930      80.63878069
H       17.30756281       3.41840701      81.16840797
H       27.39399350      26.84651750      80.57248640
H       28.90450486      26.83167858      80.19606354
H        8.85424223      17.35280957     113.38053118
H        7.59992828      16.42933002     113.74332141
H       30.41058003       1.53535917      87.25508244
H       31.47079436       2.02662102      86.18511797
H       17.97330728       1.63985317     108.63699971
H       18.34681860       0.59585335     107.52473580
H        7.93405219      27.90641616     118.52731271
H        7.59745545      27.10953149     119.73234896
H       28.37118084      17.44793810     102.50498559
H       29.55547516      17.46291364     103.51145343
H       20.80357641      23.47298908      76.63105821
H       21.69723109      24.79342477      76.52488130
H        9.73245421      24.79860707      86.30130107
H        9.62703196      24.86453473      84.73896406
H        8.44344571      30.82023767     104.05963330
H        9.00893994      31.85025765     105.07695107
H       27.37202331      28.91656172     109.32407751
H       27.27136464      30.41345950     109.29612204
H       23.42737369       2.69840967      99.66620347
H       25.01004562       2.61413151     100.00882637
H        2.48831866      14.04923156      94.02100837
H        1.29580045      14.91890258      93.54762381
H       19.72255468       2.08182622     102.29089270
H       18.51295331       1.17944074     102.54396714
H        5.55124022      23.32454830      69.61957147
H        5.97338257      21.89333082      69.61928340
H       27.81910684      22.55567645      81.01183430
H       26.53053203      22.08484680      81.41893436
H       26.69228278      25.62813906      63.58795445
H       25.48791278      24.96799072      64.06328070
H       29.43675624      17.92901753      56.08161842
H       30.37529731      16.70576750      56.37845770
H        8.81562384      29.26765920      76.97330012
H        9.47193240      28.68300752      75.73343060
H       12.16986525      31.76785611     103.47115427
H       12.80758351      30.37822150     103.26332718
H       27.17998786       6.33144991      69.66417300
H       28.46645983       7.08973924      69.76772424
H       22.94792864      16.75223136      84.36470014
H       22.87740401      15.86782972      85.59875778
H       13.65109947      12.74708014     119.14654422
H       14.41041379      13.30549051     117.97305261
H        8.24342809      19.17999065      67.59969609
H        7.22893943      19.37839371      68.72497890
H       27.58834253      20.18968565      87.34263142
H       26.56296059      20.59684267      88.43592711
H       17.41736204       5.31808983      65.04458910
H       16.49484210       5.11022269      63.78351179
H       24.00539833      16.37547944      90.72878407
H       24.94571554      15.20656489      90.27935702
H        1.76552549       6.02530680     109.37975907
H        1.43440112       4.52390760     109.68984807
H        6.26550396      24.22603477      84.09516495
H        6.03770050      24.21746884      85.63150370
H       10.30984254      20.69150846      69.54582837
H        8.81897431      20.67030331      69.37040684
H       29.11280243      21.36422347      61.88233847
H       28.55010397      21.56434314      60.46680236
H       27.63096715      22.26959199     112.65639946
H       27.69346915      22.04002706     111.10542986
H       13.15131963      18.13959279      54.12389361
H       13.00947876      16.84927832      55.01035844
H       27.15927027      14.09549882     105.15603711
H       26.73629694      14.76281683     103.83426371
H       28.97347628      15.00970240      78.62317281
H       28.04157403      13.94410015      79.23007160
H        0.76732394       6.57749559      73.71266385
H        1.16770513       7.67794335      74.63269291
H       22.80681716      20.05113668     119.93933772
H       21.76393034      19.55739076     118.94245436
H        2.90742478      28.65498417      77.23838659
H        3.43120900      27.33366642      77.90777952
H       26.74270132      27.67154205      92.87789033
H       28.01302930      28.39039642      93.33924150
H       18.31907221      10.05064763      70.00774892
H       19.73128806      10.38959821      70.51763608
H        6.73935432      16.90341392     102.14025474
H        7.01181666      16.35903981     100.74545918
H        1.73083018      30.93072961      75.03683005
H        2.89791960      30.26316486      75.73349987
H       11.92505629      24.62124979      62.68518368
H       12.90186701      25.79563410      63.02067786
H        7.75151147      19.27147230      88.55926060
H        7.44065601      18.35272078      87.40555078
H       15.91668431       1.68351898      67.19584548
H       17.25938934       0.96341363      67.58584100
H       25.90914478      12.24146289     103.72528510
H       25.18084167      11.62656086     102.48252665
H        6.03212837      13.71378483      81.94132910
H        7.35432857      14.47355072      82.34750166
H        8.75732086      24.12899525     117.80293749
H        9.59678972      23.23946332     118.77737138
H       11.33781384      -0.13539214      85.29522623
H       12.21700968       0.08656784      84.06014867
H       27.97623843       1.80426192      86.40888330
H       27.11624627       2.02690004      87.71382554
H       31.23386218      17.60531955     110.16921083
H       29.78513791      17.58436637     109.66058187
H       19.67050850       8.23079980     113.06457643
H       18.83816592       8.16187916     111.74777228
H       13.89601817       6.28114264     109.63558221
H       13.72962537       7.66704539     110.27975226
H       23.42176511      32.94272688     112.85714766
H       24.74807419      32.70751093     113.68667248
H       20.59575260      30.81197048     119.23546473
H       19.82029107      31.91310432     120.03847191
H       24.30635256      13.81247512      75.69357130
H       24.47012204      13.90253248      74.15224826
H       13.21640078      31.62272555      73.19339212
H       12.60475661      30.46741554      73.91704677
H       21.39225746      27.40674096      84.22333985
H       20.02875275      26.68162244      84.40104453
H        9.35796319      17.54350205      78.02926186
H        8.36070390      16.49079844      77.79018075
H       23.41612414      14.62436625      90.44653656
H       22.21081241      14.93519873      89.49211261
H       13.71616215      19.04092676     116.92223233
H       14.88763064      18.23429531     117.20583078
H        7.58883199      14.04106275      64.98114168
H        6.16785767      14.35537801      64.40782921
H       14.37716672       4.77032933      69.98949659
H       13.23386052       5.13143884      69.04418355
H       25.06003180       4.49914733     115.37918450
H       25.18452763       3.30709087     114.40886628
H       15.27687021      25.59238297      69.54666466
H       14.36457776      26.94090725      69.54265523
H       29.12553852      31.30052096      94.58934217
H       29.23845123      31.11275195      96.11637812
H       26.62922448      27.12283606      65.71804712
H       26.62684346      27.73740867      64.24048128
H       13.04609780       3.24532078      67.47794701
H       13.11319889       3.62623637      65.93330303
H       20.55447060       3.85800387      96.94604549
H       22.07470304       3.80313167      97.06235797
H       24.40439542      11.68961864      83.16424768
H       23.45115395      12.76064643      83.75186362
H       30.55851742       5.13182553      67.18298022
H       30.14433924       6.20753587      66.14847434
H        1.35653524       8.69700289     102.64406228
H        0.48934423       8.52214982     101.32144817
H        1.39031133      23.83716048      62.21503045
H        1.26764622      23.43620705      60.78450112
H       15.06779431       0.33244715      63.92969257
H       15.93130279       0.35548437      62.65266563
H       14.91252908      33.30208863     118.71606798
H       14.15689465      33.37942280     120.02406621
H       14.20967499      18.02163784      57.59739137
H       13.67753626      19.29286207      58.29890178
H        6.18518878       4.26657034      83.65065933
H        6.20993460       2.79232744      83.76850269
H        3.64617635      26.31412685      85.66836515
H        3.66527609      27.15057395      86.95140960
H       31.61345110      25.80371466     114.96300155
H       31.01469970      26.24570703     113.66714756
H        6.30766950      33.37166074     110.49785258
H        5.09998718      33.81660603     111.33514190
H       25.32927334      11.02475740      58.03170994
H       24.10869367      10.70891735      57.14181191
H       25.39823393      18.44250712     112.37598551
H       24.20408133      19.35312175     112.04729167
H        3.24422784       2.58324266      81.80315701
H        2.71251988       1.73720080      83.01793691
H       11.80333017       2.95038681     107.64690330
H       12.86664149       1.94219809     107.14607093
H       19.09196676       1.05630438      97.07782090
H       18.03291847       1.27792707      96.02291283
H       15.61379669      22.18088373      78.32829082
H       16.42858053      23.35304068      78.93523403
H        4.23073440      28.04301881     112.89212113
H        4.23620900      27.79905249     111.43367616
H        5.08370285       6.38426567      98.03250486
H        4.91325750       5.64112915      96.75875531
H       18.75303887      30.04384729      82.92886576
H       19.88864141      30.51983663      83.90634004
H       19.75324997      10.46095582     114.41300806
H       20.21760633       9.33907968     115.33142255
H        2.16852551       6.30822460      80.23487785
H        2.78229693       5.09661919      80.88616578
H       32.31061608      19.99511832      81.25192682
H       31.26473396      19.40214484      82.17293703
H        1.64796609      30.90502947      83.05089673
H        3.16721004      30.90301456      82.80198044
H        2.17010867      13.57378122      56.53833647
H        2.74541799      12.21616733      56.39983455
H        3.04543368       9.24862670      96.81562346
H        1.61765654       8.68057656      96.97280533
H        0.97007263      21.57065836      60.09693542
H        0.85054027      21.39294179      58.62064152
H       32.94114799      27.08757535      90.63051066
H       34.08214831      27.78679501      91.49432454
H       28.79953134       8.43976975      82.51277846
H       30.05583437       8.64207778      81.56424360
H       12.14600821      15.85430552      72.58119684
H       13.33234377      16.64449238      72.81750244
H       31.58121630      20.41382034     120.18329977
H       31.99344567      21.33784939     119.21370298
H        6.48407983      21.87106706     110.99211594
H        6.54046481      22.38826171     109.56543823
H        0.79475902      19.24168974     117.13667891
H        0.07103017      18.20791557     118.03202102
H       26.65350153      -0.06614768     100.60887870
H       27.44551222       1.20382345     100.48961232
H        7.02339960      20.12548743     100.36100978
H        6.24812553      18.80500542     100.56849280
H        1.80144003      16.52805477     113.02570519
H        2.94466533      16.24271540     112.03313922
H       12.81253223      31.95727003     118.77577680
H       12.91901649      30.46143893     118.39360458
H       27.96885091      18.03499931      93.50295794
H       26.57022880      17.54323062      93.14806452
H        8.75209149      15.66970315     119.59452967
H        8.52624238      14.40249137     118.74544811
H        3.55915469       8.55786646      92.95833034
H        2.76003504       9.76483083      93.21238377
H       23.15509785      15.18634606      99.07779274
H       22.48877695      16.55754237      99.10253674
H        3.42442792      19.32410845      68.10777007
H        4.67959095      19.15167656      68.99711234
H        8.75848758      30.04308595      60.51167341
H       10.05569163      29.98626553      61.36772505
H       33.33569370      26.77057666      62.85029356
H       31.84819259      26.62632198      63.24350340
H       30.21352035      27.24225438      54.29770553
H       28.94501800      27.31362385      55.13914768
H        8.81378757      13.98132765      60.35553640
H        8.52404286      15.36079470      59.87453212
H       12.86112193       1.64763074      78.34369779
H       14.19443128       1.12824064      77.72609753
H       32.87642977      25.15825763      79.09672766
H       33.34866844      26.60700722      78.82220186
H       21.28791166      28.88832699      70.07476225
H       22.24823933      27.90016393      70.69823818
H       30.84938684      15.22137411      99.02218796
H       31.56824102      15.98779203     100.13814295
H       24.26403169      18.00900412      96.64807520
H       25.03944240      18.15662922      98.05822344
H       19.28283392      14.74391698      86.00694207
H       19.48604000      13.37793256      85.46901033
H       20.82577852       9.20992030      93.86860531
H       21.40326382      10.43868043      94.68399294
H       24.69533065      23.30841960     101.78306595
H       24.29559417      24.80861882     102.25690482
H       28.15431747       2.67822923      54.77997445
H       28.70258510       3.67952035      55.77847453
H       32.86405227       2.52070273      69.35902838
H       34.09201211       3.19727698      70.00489246
H       29.75644118       2.28373991      60.88328288
H       28.31933628       2.77395535      61.31400209
H       25.38392630      15.56748480     106.26576963
H       24.67111947      16.43147022     107.26712183
H       13.49875967      13.25981681      85.99333377
H       13.90241321      12.84045429      87.42247487
H        0.45690543       6.73592247     107.70649767
H        0.97398209       7.65903623     108.77072714
H       19.47253394      10.75622186     109.76937970
H       20.07555742      11.48881281     108.57894627
H       15.85173383      16.33257072     106.84793216
H       14.71498208      17.33317112     106.67442471
H       15.90716279      32.66430414     111.64772226
H       15.88802662      32.43304311     110.17688598
H       14.36756642      15.35091111      67.21536439
H       15.12418946      14.55883073      68.15961813
H       10.11692961      16.84575285     116.76186370
H       11.40824591      17.71735217     116.66342989
H        9.56758435       0.53415467      83.69256516
H        9.57689812       1.97582734      83.35095289
H       22.75631391      12.60274893      77.98776544
H       23.98217816      11.70679489      77.75489376
H        1.83070555       4.79755713      99.65758227
H        3.08268962       5.35302100      98.89594774
H       30.02260458      11.71334357      97.41847888
H       30.34775367      10.16914807      97.33918159
H       20.17915101      11.29009976     104.16967703
H       20.03385069       9.79240168     104.48489126
H       21.60277376       5.13975382      88.67544527
H       20.19518023       5.30262254      88.12933393
H       30.73123973      18.99043016      90.29001274
H       29.80162181      18.46571984      91.43807294
H       16.01687165      17.89013797      58.79127494
H       16.64462641      16.50780594      58.62353519
H       28.04596936      13.97555996      62.15587852
H       26.80908925      14.48820619      62.98898683
H        8.48025421       6.85520120      54.55631366
H        7.95996986       5.72030063      53.61652030
H        9.08372710      17.76079499      60.75210005
H        7.61580330      17.46429004      60.22514203
H       11.92826977      16.46878959      84.49209038
H       11.21081043      16.16094860      83.17664723
H       32.46673699       1.64400899      92.55085580
H       33.98761540       1.73098244      92.79270907
H       24.34377880      15.00971087     117.03821185
H       24.43372905      16.44048375     116.51110687
H       30.17773965      29.67102447     111.89574101
H       29.42180904      30.99014628     111.80672159
H       12.92196415      31.85586333      59.82211796
H       12.52112431      33.20417151      59.09516097
H        8.93240586       2.34463876      57.92367091
H        8.86950746       2.54689914      59.43690415
H       22.58889384      30.92754867     104.83270196
H       22.40101444      30.56384948     106.31849740
H       27.59008319      13.09651233      56.39802756
H       28.31118340      13.03813530      57.72578375
H       32.47583988       9.63933689     112.47532805
H       33.19189227      10.17140014     113.69976658
H        6.39387253      27.40780367      97.35045527
H        7.33181443      27.41021744      98.58846719
H        6.88300885      17.37073438      91.56689064
H        6.71817939      16.64847011      90.19769892
H       22.24147211       3.37323324      63.96486815
H       23.66676944       3.75416785      64.41123897
H        5.00947796       6.40870428     118.69388484
H        4.89729430       5.05432525     119.40702027
H        3.62797742      18.06633800      81.11981981
H        2.75877716      18.98578965      82.02061570
H       21.88301498      18.28669978      55.49745354
H       21.94432892      16.82326710      54.92925672
H        8.76449991      12.59179099     117.61098967
H        7.74837167      12.66875282     116.44338393
H        1.31185527       8.75512254      80.42273673
H        1.53627464       7.43166273      79.62490976
H       31.83472186       6.49465626     103.76342124
H       31.09306500       5.25329695     103.33751962
H       24.22338994      33.60858619      82.22189433
H       24.79593876      33.20077464      83.57310842
H        6.54698011      13.08559970      89.73365984
H        7.66538632      12.81227829      90.75918245
H        6.70006094       0.88641138      88.02556334
H        6.55375020       2.25297297      87.42624104
H       20.44978672      18.82794944      53.20236472
H       21.49748005      18.20364415      54.04489527
H        0.28163271      17.42824229      70.12467645
H        1.37726939      18.31231159      70.85331172
H       17.31208992      13.56128827     102.56758840
H       18.21401314      12.24221366     102.73129492
H       24.64892369       9.70903702      81.07212221
H       23.86720153       8.57339294      81.83934564
H       15.60715007       3.95191428      56.19671323
H       14.66057757       4.22471885      55.04560393
H        6.03028209       8.82862469      81.35939702
H        7.25648859       9.74622200      81.57367078
H       15.65778191      11.50049227     116.06559398
H       16.48611157      12.75063874     116.12446814
H       28.16245266      12.36437634     114.93238078
H       28.23759211      11.07272973     115.73809590
H       19.47383759      32.02612669      74.93097217
H       18.18718775      32.62277714      75.59098272
H       14.10349225       4.85175245      59.30900938
H       12.79573013       4.23256295      58.71862153
H       19.70854036      22.57714064      71.98465524
H       18.91274065      22.49346076      70.65414709
H        5.66991118      28.46689095      69.81730973
H        6.24020130      29.08648756      68.53407691
H       29.63361412      21.03773552      64.93492832
H       28.42817083      22.02659890      65.07846249
H       17.84521800       9.67083173      62.56488484
H       18.22582034      11.17222756      62.40820148
H       12.14317966      32.01990223      92.92783375
H       11.17675225      33.01308195      93.57179784
H       28.94221831      21.97190830     109.28363078
H       29.62224595      22.97957530     108.36741315
H        8.41476234       0.81190765     105.00697417
H        7.48275045      -0.44401824     104.90790710
H       22.68587794      27.66891663      71.85766729
H       23.94798438      27.92742973      71.03621495
H       10.77294610      12.47771637      97.55476859
H       10.35384116      12.42876784      96.11503249
H       31.79034802      27.81010900      78.03582118
H       31.55484409      27.44136399      79.55839508
H       30.42035097      31.36197611      53.66148816
H       31.19395585      31.96273700      54.45592121
H       16.74030652      14.11125344     107.11036775
H       17.44975791      13.63865679     105.85447988
H        1.99296902       2.77125187      84.80270954
H        0.73056132       2.58635404      85.62265570
H        5.09012168      18.56976259     113.27522704
H        4.60776893      18.88412062     114.70637374
H       24.50450249       1.49070812     105.90418044
H       24.99944216       2.49629116     104.80452916
H       25.15299444       9.66405210      84.80241846
H       23.94380271       8.93104678      84.18675349
H        3.88735463       8.25988231     104.78981454
H        2.50404336       8.28977749     105.36028101
H        5.51174444       3.47740624      92.46718477
H        4.47248334       2.39837566      92.61279108
H       24.46431589       4.37798858      84.83443001
H       25.54884864       3.82324132      85.78731164
H       19.29256958      23.01254073     104.99986012
H       19.87596729      22.53548699     103.68171933
H        2.83605365       1.15759630     107.90692264
H        2.21611602       2.45071380     107.33321927
H       21.62645304      29.75573129      98.86317131
H       20.29691119      29.64996844      99.58621542
H       15.92420598       6.82207695      62.49368491
H       16.39633142       6.31816944      61.15930729
H       17.19117070       7.38103833      88.94753771
H       16.36856166       6.21451226      88.67847832
H       24.85762865      18.77534158      55.81967103
H       25.97206312      17.86093242      56.25055469
H       30.49506868      22.86246841      76.45380482
H       30.84738736      24.21072811      77.09121025
H       18.81627466      24.41458258      57.75235201
H       19.60541690      23.34466486      58.45398102
H       30.61141161       6.82434789     112.31232233
H       29.12466872       6.94469755     112.77453079
H       17.38998838      31.68688228     102.15347734
H       18.53962698      30.74745228     101.92578197
H       10.91698559      33.22780806      90.18195596
H        9.91770570      32.09434369      89.94847306
H       11.34733468      17.60259344     104.03025765
H       12.59021132      18.40619510     104.57384727
H       32.59285439      11.77913476      65.84096865
H       31.62592823      10.61079298      65.70417348
H       26.14185523      25.33174038     100.46410299
H       26.61458613      23.88314878     100.21381519
H       14.81479066      11.32489853      60.75748855
H       16.24925360      10.95639584      60.91642363
H       10.48635942      28.02847381     105.23336966
H       10.21069341      26.90186318     104.24990320
H       25.60437952      12.99673295     119.20093848
H       24.77299402      11.76572540     119.67810340
H       30.40653672      17.16317656      84.14339299
H       30.74322688      18.50021546      83.49377419
H        8.26013695      21.17234402      93.30499178
H        7.33910180      22.29590851      93.74827445
H       21.26949075       4.14461979      67.02504539
H       21.41791413       4.46593106      65.54936817
H       29.41818159      10.18462435     117.50547471
H       30.94549709      10.51423760     117.70776120
H        1.24869539      32.80605137      95.57049925
H        2.76912206      32.57780838      95.96772991
H       22.27971377       5.59017825     108.58764609
H       22.32983140       7.07250374     109.13804885
H        7.44538478      29.94291808     107.99514234
H        6.51114883      30.95014469     107.43094951
H       23.89234197      21.56981177      75.80807144
H       22.65486125      21.17517252      75.09911683
H        5.07611441      13.93291965      92.72098744
H        3.83798333      13.23516574      92.10728156
H       21.02141969      25.11676910      91.53252061
H       20.39141638      26.55597984      91.53511958
H        3.70690385      12.59808991     103.82480061
H        2.62890080      13.54998693     103.15557008
H        1.32351902      20.40251250      62.35390122
H        0.15667615      21.10996207      63.02338079
H       12.20448814      13.50873918      65.85025606
H       12.28236481      12.40186405      66.85895891
H        6.35007633      11.41309108     109.90561905
H        6.35916842      12.48445243     108.78929755
H       10.32302966      15.96540213      78.54890410
H       11.25603786      14.73668950      78.65831349
H        1.28507205      29.56875280      54.91489884
H        2.09887520      29.69589468      56.18900663
H        7.85781017      29.80166075      89.80762852
H        8.22506410      28.84959270      90.97063801
H       31.18853782      -0.67271682      96.36843202
H       31.05394707       0.79881303      96.87106642
H       11.74203046      26.51757011      67.50174864
H       10.25394973      26.05457984      67.50071926
H       18.25227163      10.73909168      81.68606061
H       18.95965488      11.11301738      82.95604913
H       16.77198690      20.03652750      80.76820398
H       17.61655047      18.85696615      81.21297796
H       30.08757705      32.28748027      59.92110335
H       29.72386094      33.43535142      60.92285134
H       18.65401318      23.84632118      77.16989752
H       17.19451251      24.33963122      77.00171981
H       24.32644969       9.66021841      92.99145235
H       25.07979413       8.89099418      94.04861069
H        8.22724562      32.22954142      88.33174076
H        7.03855130      32.98093789      87.84937087
H       13.74775506       4.99062743     113.70084474
H       15.22783376       5.58040253     113.63405127
H       10.84578842       7.81921063      99.84578363
H       10.88928154       6.81686154     100.94896224
H       30.55309112      -0.20977749      71.28751068
H       31.16875521       1.17707134      71.57961194
H       16.96237340       3.88505144      77.93372657
H       15.47077800       3.79144503      77.57437371
H       14.14847176       6.96396761      57.93867210
H       15.67000977       7.03087146      57.72743242
H       31.78430002      10.00996877      71.77752778
H       30.64210610       9.07095487      72.09705575
H       13.59668411       9.91229881     113.57312254
H       12.70378940       9.00312678     112.67517495
H       27.93214641      17.64094482      61.25954750
H       27.69188628      18.21062574      62.68482755
H       11.33185608       7.06940931      52.95817666
H       11.10536000       7.75028277      54.35684397
H       10.20507718      28.28897033      82.57662860
H        9.24436471      27.18228978      83.06688967
H       23.09044676      24.55779086     114.11615806
H       23.16608898      25.60822924     113.04310959
H        9.45335812      23.66380579     110.45166126
H       10.55139186      24.27327953     111.36594074
H       26.75653847      21.39146252      55.19859639
H       26.43724828      19.99333525      55.77445204
H       32.74028636      11.17676662      88.11610154
H       32.16335602      11.81161950      89.34272666
H       15.42852448      29.19419143      86.86710847
H       16.81516687      29.06210069      86.33867996
H       14.81300640      27.90042591      59.57403796
H       13.47710816      27.73280719      60.35800831
H       24.85032058      28.27755090      92.80736273
H       23.41610058      27.62377016      92.43143591
H       20.82938932      24.90624037      53.33826865
H       20.56698396      25.52814603      54.69844298
H       13.52199341       8.52971703      76.67423853
H       13.64235896       9.80889512      75.77225861
H       27.32692309      27.42916907      55.93607118
H       25.91483959      27.12855915      55.41844970
H       26.63834452       2.48929622      79.75862198
H       27.99340510       2.06895360      79.10447067
H        9.36934328      22.74115968      54.04310200
H       10.69649164      22.97548996      54.87288157
H        9.12769263      14.55793221      97.77304854
H        7.72090684      14.56791352      98.39508922
H        1.67145461      14.17617358      99.36350847
H        1.09479116      14.09291599     100.74594637
H       -0.10095024      33.40006601      67.97985690
H        1.18767108      33.03882981      67.23327121
H       31.23219209      32.56074754     103.79398624
H       29.86304527      31.91808819     104.01294368
H       32.73497301      11.32705812     120.38570332
H       32.68239084      10.74061684     119.02596460
H       30.84637070      21.78539720     116.49742735
H       30.11912895      20.65675467     117.29832529
H       22.90224815      31.47092081      65.77328824
H       24.17665616      30.81253287      66.33676122
H       22.50595659      31.94420555      88.59519739
H       23.68834597      31.00490396      88.79619624
H       26.11957910      12.17063827     109.90545223
H       27.38294686      11.85864939     108.96470325
H       24.12922139      19.72221726     117.54838075
H       25.04868262      19.14397247     116.44607945
H        0.62850438      21.91068735      85.84370773
H       -0.63180849      21.93719406      86.68960242
H        5.43622437      16.22882353      59.63547248
H        5.78954100      16.95386705      60.92452910
H       19.66088408       4.77669318     109.43144982
H       19.28471306       6.25417994     109.26876258
H       15.03015608      21.04933060     106.81699005
H       13.54114320      20.92607907     106.73097602
H       18.13385631      20.77679212      88.92773563
H       19.19587056      20.49937946      87.83533186
H       27.26733345      14.89945599     101.12494754
H       27.56673667      16.16813749     100.30062243
H       14.20267316      16.55308646     117.97119505
H       13.80056933      15.46326730     116.89993212
H       21.52083912      11.58380063      54.81471058
H       21.04293384      10.98325640      53.52519935
H       15.41516978       8.15107503      66.04598996
H       14.14552159       7.17165941      66.09683312
H       11.33867536      10.97571814      90.29586269
H       10.31076746      11.83442087      90.98786789
H       20.50286517       4.30255730     118.73039325
H       19.80831308       5.63384132     118.54223801
H       17.81415331      24.11652370      65.35357497
H       16.53562923      23.97394062      66.21881951
H       10.48432760      11.49934119      99.57073058
H        9.71639592      10.16430108      99.52645319
H       23.21503755      20.59368666     104.13129385
H       22.02073814      20.02695218     103.33294221
H       12.11940399       4.54534837      92.52687402
H       10.67674707       4.86601275      92.90740037
H       32.18856420      11.19210112      92.87606071
H       32.39877572      10.14447558      91.73483393
H        5.40979544       2.31269041      61.84614179
H        6.86300251       2.80839302      61.64307580
H       23.04272025      12.91762722      86.54577748
H       23.42033230      11.42505664      86.87585121
H       13.37646122      21.33385740     119.35240644
H       12.98561609      19.85904478     119.22140117
H       18.26216701      27.81458752     112.43254523
H       19.21212841      27.87492328     111.16512165
H       25.16275171      30.99290554      79.36369174
H       24.15087412      30.34349321      80.23662351
H        7.62555468      13.95760377      73.70984609
H        7.23510537      12.56634209      73.14451161
H       18.29107857      24.47341912     114.45486034
H       19.31456168      23.43511302     114.98527002
H       15.18056386      13.29990939      77.72040761
H       15.86704746      13.78047044      76.49455186
H       26.50361348      18.21074631     101.42537259
H       25.70576086      19.52566798     101.29286945
H       15.42297570       3.73020226      98.25144068
H       14.09174747       4.40318462      98.60768215
H       12.13011250      26.31836357      73.20522283
H       12.71877599      27.42297195      72.36864990
H       15.21781970       6.76503502      78.47779923
H       14.69099717       5.33433091      78.55717021
H        7.11897894      31.08145215      74.29992137
H        6.45138327      29.98061412      75.24242342
H       25.13306303       6.43151460     104.09833820
H       24.66816678       7.28196886     105.24393339
H       29.56512054       8.25557050     120.30380532
H       28.74166503       7.94198399     119.02159586
H       20.43727727      21.00485967      62.77699924
H       19.11839597      20.11605708      62.55154044
H       23.72400340       9.66631791      59.95225047
H       23.67757079      10.97962677      59.10265367
H       29.61739281       8.83645149      76.75742785
H       29.56194949       7.55226168      77.51849720
H       23.71202576      15.16085250      88.65608754
H       23.98700381      14.05152702      87.61202455
H        3.35480632       9.66858587     117.42319189
H        3.64848102       8.47560474     116.50471661
H        2.57314053       6.73758293      83.38995068
H        1.14679797       7.31314973      83.45504704
H       33.67592013      26.20273840      82.13097572
H       32.43273568      25.31808435      82.04746065
H       31.52790887       3.02598647      75.08290920
H       31.63670329       3.83842223      73.74120820
H       18.40823875      26.04141076      94.04217319
H       19.48004310      27.00192638      94.70374530
H       33.09838046      14.33439572     117.14415523
H       32.47892333      15.59632736     117.71651562
H        2.85505166       2.96447555      65.89347581
H        3.39876461       1.59723907      65.40337206
H        8.36242925      25.72759240     103.20385467
H        7.41334308      26.32987710     104.20313675
H       20.48032228       3.16570154     102.82827272
H       20.16468025       4.53766793     102.26809140
H       13.51557223       1.83748110     117.86033673
H       14.76106672       0.99582737     118.11583847
H        5.30797120      18.81753128     108.71125012
H        6.31184116      18.04718654     109.62650572
H       26.92142133      22.93535173      75.47757614
H       28.02091411      24.00664625      75.40562420
H       16.15412584      15.54514816      85.14369410
H       15.90053878      14.30387633      84.32778589
H       14.84034131      29.19584121     114.31947403
H       14.43352826      30.45061857     115.02798661
H       17.57304493      12.16347922      71.40178965
H       17.05223696      13.55180816      71.36215654
H        2.34033403      17.24073617      65.88003223
H        2.35297495      17.19666777      67.40586251
H       12.09369383      18.69921344     106.73476524
H       13.55694924      18.57227857     107.22533678
H       17.94592910       1.19787594      74.85946689
H       17.59586465       2.09562067      73.64023701
H       16.42557754       2.22208146      84.59963783
H       16.94429231       0.80418664      84.33111928
H       24.08920784      32.87313096     107.36087170
H       23.57333094      33.90209356     106.32320260
H        0.41267614       7.72882196      95.25772670
H        1.30570324       8.47337970      94.22411249
H       12.32824095       8.27956057      86.44034706
H       11.74327428       6.85858936      86.37239760
H       21.78083752      15.13461794      96.60929375
H       23.26099508      14.87101953      96.86815207
H       -0.06284684      31.41573127     102.13723745
H        0.86946426      30.90318817     101.00514895
H       26.92744822       6.10816384     116.30589367
H       25.65171655       6.32371779     117.12615813
H        6.45097632       8.89494891     113.89230088
H        6.32621938       7.54601090     113.04704593
H       30.37907385      13.91152289      93.46963624
H       28.93772644      13.67978965      92.93022197
H       29.90696248      22.87694454     106.40682940
H       28.49604279      23.03097336     107.13252005
H       21.78298491       7.00097375     117.02096600
H       22.69037250       8.13633982     117.38392483
H       19.67269119      29.35595156     107.58050464
H       18.59936978      30.43734645     107.36082157
H       25.05932872      30.13164675      55.74505947
H       24.35134099      30.60666030      57.00851347
H       12.47968922      13.74962573      94.92102843
H       12.41337771      13.88080186      96.42369661
H       10.12082397      28.71295062     109.79416707
H       10.73942784      27.39519315     109.72534484
H        9.16053860      31.02278754     106.64700500
H       10.67802694      31.26361919     106.70780073
H        4.78101103      16.26534885      57.83069963
H        3.75374931      15.76757787      56.87450395
H       20.97613684       7.83886379      73.58030520
H       21.07853641       6.87413714      74.90494392
H       16.38813547       0.12323337      99.62327591
H       16.57864186       0.50537280     101.11238488
H        7.30404373       4.34849091     107.48623805
H        7.94529612       2.92061217     107.51765657
H        9.84545992      22.50187296      80.71804932
H       10.27170106      23.40437828      79.60774019
H       18.22938164      26.40163283     114.08156052
H       16.92950828      25.63234619     113.70574805
H       15.91155313      30.28828420      97.87776784
H       15.18670629      28.98792049      98.40906470
H       21.13950776      29.63810587      88.09191005
H       21.19495067      28.84476663      89.41910965
H       26.65069976      30.25300083     115.64692066
H       26.53597028      28.83923049     116.26029546
H       26.63420436      28.14422349     107.23910369
H       25.25107644      27.72331975     107.78390873
H       12.75352179      12.58032271      74.24815762
H       12.03776318      12.75305233      72.82609367
H       24.54685742      27.70235742     113.67103289
H       23.98248257      26.88153142     114.82894459
H       18.65537827      28.01626127      78.58823817
H       19.75671493      28.21663980      79.71129329
H        7.28925549       9.18390083      53.80673853
H        7.47347682       9.76489740      55.20277755
H       22.71946360      18.82566493      80.80662036
H       22.74992792      18.34691510      79.41736233
H       24.86731543      28.55418635      75.25033337
H       24.64483699      30.06343747      75.27601970
H       29.46363125      14.31073045     118.07942294
H       29.08917437      14.87347348     116.63522909
H       12.07279320      19.24463902     103.33998087
H       12.23639731      20.16743688     102.09585062
H       30.08985373      17.74173225      65.20508840
H       29.18583016      16.63232659      64.69849660
H       30.21625463      25.76073513     105.87059930
H       30.09541633      26.21541109     107.34386352
H        1.63964745      16.55993779      89.74743691
H        1.72960047      16.81637209      88.23846193
H       22.15942605      12.35379933      73.82151987
H       21.61179178      11.57627219      75.01861403
H       18.50744656      15.80442440      96.27128129
H       19.79895687      15.26987040      95.73112763
H       20.21123864      15.32218467      87.57367950
H       18.88888927      14.61374858      87.74490824
H        2.69090076      16.59990279      55.19108019
H        2.21075971      17.44091823      53.98012430
H       31.97755644      20.07001241      57.02195067
H       30.87901326      21.04796240      57.46895382
H       19.60251546      13.12104992     115.19540406
H       20.28584299      14.48242472     115.51725707
H       19.61222972      27.77946341      87.62262193
H       19.85640073      27.61503951      86.12120961
H        0.24708276      26.76395697      56.28968839
H        1.55057665      26.42430793      56.94338832
H       28.65025561       6.11439984      86.27885351
H       27.70331746       5.43256772      87.26859886
H        5.32260862      15.53820643     108.17848192
H        4.98079662      15.59960493     109.65235228
H       29.90450920       7.85042434      94.41528802
H       29.99214912       6.36454239      94.08518652
H        7.51188911      20.59515442     110.14348238
H        7.70661779      19.09566577     110.35047923
H       25.32267386      31.74476620      90.92875168
H       25.55776035      33.26561181      91.38469329
H        1.30340267      28.03439210     111.73265121
H        2.54780284      27.52536963     111.04590404
H        6.66318365      27.75337530      78.72949278
H        5.67070871      26.78121918      78.07799140
H       24.75231599      21.96040291      74.20298760
H       25.67498735      23.16113894      74.07692526
H       28.89791164      32.56267101      88.62634361
H       28.94368930      33.45792897      87.35927675
H        0.98614894      20.42907016     111.95185327
H       -0.47183062      20.16886667     111.99338925
H       32.05334270      23.83875545      99.47344782
H       32.41993298      22.39789980      99.72024168
H       13.21091798      12.57010895      57.52047097
H       12.49855554      11.25835785      57.80038884
H       26.44101434      24.86238822      96.41869754
H       25.43634500      25.74130946      97.13385518
H        1.49744967       6.38032111     120.50969008
H        1.85187588       7.25515742     119.24283397
H        3.65295203      -0.24710076      53.59503657
H        4.58975803       0.91427209      53.52964446
H       24.93140859      12.63021282     106.81076014
H       23.43649350      12.97554230     106.51990293
H        2.30536534      17.37620941      60.78328210
H        2.90615609      16.14880055      60.05733037
H        3.64399387      17.00277026      72.71790249
H        4.28627076      18.27183002      72.07891715
H       15.26570493      16.70716690      64.79798074
H       16.72955107      16.44337520      64.42633417
H        8.60353286      13.77949134     103.30764915
H        9.43395665      13.49340228     102.12200063
H       11.55099085      26.28755632      91.45825480
H       11.92940082      25.17859235      92.46703381
H        1.02746659      32.81836769      60.07958976
H        0.60824786      33.19670930      58.74669408
H       16.09220644      28.15540924      79.37059817
H       16.18564718      29.09468158      80.60177505
H       24.43462086      33.76248139      62.24346929
H       25.41097709      32.92356724      61.36152570
H       19.71504262      18.84595561      80.17330333
H       20.39824786      20.17783709      80.54725064
H       14.71700921      25.71416321      55.45035198
H       15.48103381      24.40428160      55.79085228
H       10.76174973       4.63477323     102.27951756
H       10.70500930       3.21975571     101.58873187
H        8.49604934       7.80735506      86.45942049
H        8.41829097       6.25640741      86.61393139
H       32.86602258       1.36682952      98.02282537
H       32.80708006       2.37980674      96.89526908
H       22.02369740      31.04708405      85.18158048
H       22.08703151      32.08065582      84.02060939
H       27.38949299      21.38789779     104.56380567
H       27.69609448      21.12029181     103.07077220
H       16.96672899       0.83480496     117.49585841
H       16.68933292      -0.29888684     116.51457028
H        3.69581176      22.13942888      95.48079355
H        3.35459363      21.29922083      94.29731243
H       30.42056235      15.77497884     106.37857978
H       30.86012720      15.84000626     104.88496514
H       32.18881685      21.19616716     105.81522641
H       33.50852667      20.58754851     106.03774468
H        2.00387990       0.26929476      72.16497014
H        0.99685517       1.31531447      71.71801497
H       16.21015665      11.89108318      56.18882706
H       14.89918482      11.49184835      55.55046674
H       15.21831084       5.23638080      84.78616950
H       14.40360517       4.47421564      83.70681488
H       30.47894370       1.26598923      77.94058191
H       31.69411233       0.91991065      77.09364695
H        6.14072343       8.91376643      79.86533592
H        5.41706803       7.50554029      79.87117043
H        0.36880945      31.67540005     116.18275098
H        1.28032148      32.88263361     116.23492065
H       30.00241492      12.52922560      91.53810265
H       30.75761267      11.59581554      92.33453813
H       11.37034974      23.11993886      76.70433683
H       10.04140938      23.15753171      77.47563830
H       26.81149309      31.83881781      65.06950351
H       26.48576940      32.48040728      66.37408712
H       19.43474247       9.25044555      76.27493470
H       19.63959295      10.65049498      76.80484962
H       23.23145219      13.63692585     119.10768299
H       22.03806411      12.69185505     118.85378266
H       23.14545808       6.76343864      94.57647165
H       22.35116973       7.07575968      95.84032184
H        9.57341923      30.89248164      93.86615388
H       10.79975146      31.27335216      93.21549693
H       14.67977591      23.84061192      66.81635664
H       15.60438983      22.57775317      66.68976630
H       10.41992857      15.65291691      57.06633441
H       10.32425990      14.90821210      57.98810216
H       20.65518723       6.11436244      59.92560689
H       20.70030097       5.02157683      60.93766942
H       14.55156117      13.96992714      93.33851302
H       15.85785835      13.28318009      93.36475054
H       26.47242997      17.54205238     103.22903886
H       26.10692429      17.47098024     104.69733797
H       19.95557863      27.71680865      65.39067661
H       19.92869568      29.04512808      66.15704188
H       12.30429206       9.26182107      73.01139282
H       12.38461164       9.07876174      74.49876187
H        2.02287567       7.33197538      68.16235354
H        2.72134602       6.01458633      68.70519084
H       30.70376164      21.32203433     104.50189075
H       31.07999926      22.45021753     103.53452419
H       17.82942638      16.17031805      93.76437743
H       18.35603302      17.21527225      92.77489939
H       28.79032670      17.06570764      80.99050664
H       29.85590242      16.08940347      81.54205270
H       26.83493445      32.74950943      81.75875429
H       27.09591998      33.43238965      80.42388051
H       13.11053567       5.84557479      86.91699876
H       14.47158268       5.51023818      87.51292042
H        3.07997132       0.52065447     101.97657504
H        4.41269853       0.34331682     101.14647439
H        4.96937296      26.63399917      61.50269745
H        6.06708747      27.45186159      62.26080459
H        4.33402213       4.35982549      54.46954161
H        5.21912067       3.09216016      54.80950904
H        9.65050668       3.68176804      66.47500315
H       10.41354297       4.45942661      65.38108152
H        3.00109738       9.37733629      88.89902936
H        1.60779341       9.42891587      89.59318392
H       10.42611103       1.18029091     114.77658126
H       11.15851959       1.97532154     113.69405773
H       23.94051030       5.97680892      70.82873054
H       22.79716592       7.05702025      70.64374454
H       19.05127856      13.84513742      97.64573354
H       17.61342710      13.57087819      97.90430532
H        8.30175659      28.24782426      58.68889688
H        7.81501077      29.40507387      57.80538824
H       16.04348055      29.60424531      54.89901256
H       14.67688769      30.35527817      54.72761185
H       19.94663736       2.38354297     113.32783132
H       21.00350649       2.40045308     114.41218666
H       21.41724553      31.20613569      71.94171177
H       22.82315883      31.84126307      72.09524051
H       32.10384899      30.86981549      98.57877374
H       31.89593590      29.73070862      99.59451513
H        9.76446318       1.99275333     116.27341571
H        9.51400818       3.34575886     116.76501429
H       11.75598383      31.03865661      89.37483072
H       10.42344363      30.40398880      88.81289174
H       26.21523942       9.70343240      61.43992984
H       25.30346650       9.92635216      60.29600846
H       18.73048491      14.78340822     100.87718947
H       19.82281546      14.90138382      99.82596773
H       29.13343525       9.80967370      95.85474131
H       27.96066500      10.76768823      95.44788814
H       22.54267974      27.94337415     107.76260219
H       23.17683431      27.90888914     109.19410865
H       17.98386432       8.22047319      89.69666830
H       18.44094366       9.14126585      90.82798185
H       13.84176335      30.17405011      67.77254568
H       14.59973200      29.02014020      67.14561726
H       30.05388946      16.82715224      89.13676092
H       29.59304710      15.37539090      89.04923817
H       16.32838527      33.10278790      65.53090148
H       14.95248485      32.55523696      65.89900362
H       20.18645296      24.89482001     109.09297696
H       20.17417939      26.41208391     109.40592619
H       28.48396013      30.67472829      92.93405325
H       27.74184838      31.92867911      92.56260527
H        3.58213946      31.20031501      85.23282415
H        2.46451932      31.22929489      86.24214600
H       33.19594262      25.10730075     117.36230532
H       33.83824158      26.49824841     116.93588449
H        6.07849928      31.35436845      83.76180442
H        5.76725053      32.71688642      83.23823662
H       29.42314165      12.60873131      82.00007957
H       30.18853717      13.26992827      80.89430951
H        9.66838480      17.54200001     106.03501631
H        8.30376245      17.04329011     106.47061716
H       32.24874004      22.75926982      91.66476379
H       33.20869204      21.48111228      91.72270952
H       27.85378216      21.23356305      64.15457432
H       26.38892027      21.15279099      64.09126636
H       17.51617590       8.63840452      61.75816969
H       17.76459138       8.00943067      63.18603592
H        8.88206796      17.32702642     111.87042424
H        9.05020850      18.58500909     111.02350482
H       32.17590033      26.09674735      96.26228387
H       31.42786314      27.13778456      97.27032339
H       24.62892950       0.16726074      54.58550195
H       23.50503387       0.67459488      53.69675733
H       25.05758140      18.22451602      60.21299490
H       25.37739718      17.38332506      58.99643990
H       26.29799273      21.32023853      82.57378961
H       26.97904721      20.19788799      83.25533375
H       17.51320064      26.70125051      69.29634697
H       18.38424010      25.89751429      68.33959675
H       13.96549553      18.14994820      63.32287929
H       12.83223168      19.01036654      62.78552948
H        6.91835270       8.36761041      76.75670709
H        5.42560019       8.04875870      77.06728938
H        2.87600885      28.35802581      71.00612974
H        3.23888005      29.61432453      70.04048905
H       27.62361152      32.87516150      98.27496327
H       27.03017198      34.01196704      97.33796154
H        6.67993351      31.44054368      59.02635229
H        5.84882600      32.67455843      59.45710790
H       11.93082009       6.38616143      96.73365232
H       12.68354506       5.12418503      96.17722263
H       31.70784173       4.97391324     115.42901350
H       32.38354977       5.94928501     114.58330066
H       13.27863216      16.10939715     109.30779309
H       14.76924700      15.84924282     109.38873816
H       23.61150439      19.08146067      92.80853675
H       24.38796144      18.04884484      93.57497482
H       16.80886197      32.87021847     106.28908613
H       16.64855500      32.86367392     107.82575226
H       10.15414611      13.60098794      81.60860909
H        9.19745960      12.38855028      81.64586364
H        8.24406666       0.73630870      80.19005340
H        7.78195658       2.17387311      80.43565762
H       10.78411219       8.80706024     117.51327622
H        9.43473838       8.51794789     116.80168893
H       32.29888503      14.19215846      87.80187398
H       33.51459155      14.95142910      87.22227257
H        9.36911085       9.98250948      60.25415616
H       10.70864473       9.19091114      60.17935092
H        4.81195620       6.47358225      63.41321099
H        5.37192586       6.41765569      64.83073985
H        2.80956268      22.45045442      66.74640267
H        2.16814822      22.95178916      65.47829424
H       19.66042224      10.37491029      89.18828609
H       19.15149310      10.96958470      87.87959874
H       31.27457892      13.59234424     117.74886219
H       30.54714502      12.53870996     116.85408436
H       25.72703030      31.87020207     106.17604902
H       26.50099339      32.79134092     107.06037873
H        5.32096047      20.86290079      63.11052688
H        6.39613197      19.92644031      63.55752053
H       31.82158417      14.61487031      76.25276222
H       30.79234322      13.89697906      77.10278551
H        3.50639914      31.32295403      68.06515129
H        4.14570835      30.09416138      67.37485456
H        6.46987451      10.85051817     118.05137351
H        7.54702504      10.75895203     116.93588438
H       21.41396047      14.68987261      54.58705240
H       20.39427783      15.38562803      55.38626912
H       13.77229661      32.18561351     108.10872194
H       12.64906308      32.89951492     108.87880540
H       19.92266650      29.57804805      62.00550342
H       21.36744292      29.86632097      61.55007949
H        8.78284607      17.56522521     116.61138626
H        7.87685764      16.31776848     116.78719230
H       27.73129476       6.92830193      66.66602069
H       28.36834964       5.56327034      66.94977120
H        5.88684922      19.14362078      85.46171248
H        4.63927899      18.74609097      86.30089059
H       17.91545254       3.61561002      58.72316313
H       18.89304038       4.44237161      57.92313574
H        0.99935793      23.55161021      70.02116894
H        1.09994729      24.76967767      69.01336372
H       30.29115241      18.30928646      69.13104485
H       29.74741752      19.67709581      69.56222241
H       11.77073507      11.89951536     110.35286577
H       13.08089679      11.72249099     109.57533657
H       24.56945628       1.78121528     108.09673910
H       24.06945223       2.39487856     109.38875085
H       27.43522070      26.45163022      73.04164694
H       28.83524732      26.66870275      72.38795671
H       10.11973696       6.58650898      79.90475280
H       10.05384956       7.53698830      78.66935591
H        5.35425303      24.72966518     104.21530677
H        6.02561758      23.56719909     104.99868537
H       25.69144634      12.88329611      90.59090673
H       24.92064485      11.59965436      90.85429730
H       30.65652626      11.39169342      70.02320874
H       31.81948915      12.35887544      69.83050888
H       26.39434548      14.32170488      83.11011219
H       27.02327905      12.91213033      82.98849759
H       12.29325675      16.72018440      97.15912264
H       13.67328578      16.48892108      97.89718595
H       17.92805975      18.38446742      76.57337988
H       18.89435018      19.32284337      75.84333098
H        2.87975923      16.74837476      90.59942760
H        2.20630192      15.32590573      90.76903344
H       10.75951887      15.11851177      61.57635931
H        9.71881548      16.11336408      61.16079645
H       31.44912876       4.45539357      79.67476993
H       32.26232626       5.41172124      78.78282755
H        9.17957534       8.24433603      62.67015019
H        7.73467443       8.81033816      62.78432099
H        6.81453193      15.55520256      53.98238187
H        7.36905732      15.13736389      55.32579411
H        4.11148603      23.56596490     108.48869486
H        4.66555402      24.51455583     109.58719560
H        8.97023234       3.68945341      95.10565643
H        9.96359878       4.82928480      94.82895758
H       18.27814153      27.61655701      57.68017472
H       19.27104926      28.73014260      57.29743425
H       27.68108941       7.70264481      96.69037267
H       29.03831416       7.95950969      97.32717913
H        2.93929713      15.68322603     106.71699901
H        2.82897469      16.43413162     108.05207542
H       13.45403049      31.88988736      62.75990124
H       13.52652032      31.09580611      64.06648685
H        9.22624147       9.20307679      70.53281816
H       10.77485061       9.47856474      70.40287992
H        6.64305958      14.82993255     105.83349836
H        7.89457578      14.12535722     106.49390824
H        8.38864914      26.53423327      60.76603256
H        7.22022499      26.24586381      59.83290864
H        8.69365207      18.81951740     104.03252226
H        7.68305611      19.93208251     104.36339502
H       31.87353022      25.81554658      91.93750131
H       30.46676921      25.96014765      91.32127943
H       17.09663300      24.35450071      84.39628434
H       16.22191672      23.92477236      83.20232580
H       19.11339952      -0.42575236      99.21502931
H       19.56701750       0.19912994      97.90544863
H       32.65318240      12.06346679      77.82612179
H       33.11038849      10.71770137      77.45919914
H        0.73886083       7.79021447      77.35361601
H        0.45722057       6.70067876      78.34508317
H       15.89065194      26.15087822     101.24258698
H       15.00980834      25.36979943     102.20160895
H       25.10360303      27.59599537      66.09075391
H       24.88073596      27.37005397      67.52751547
H        4.12690835      22.84014493      74.09627663
H        4.46500211      24.30912986      74.10083497
H       21.37241729      27.63772362     118.65236444
H       22.00102744      27.45026546     120.00503788
H       21.64940354      11.49039878      63.44036800
H       23.03309719      11.06548940      63.02792040
H       31.95066984      26.80501682     108.46060437
H       32.02668670      25.78200955     109.58565302
H       12.18153689      27.39186412      84.91395202
H       10.95967552      26.42450358      85.10382979
H       16.75858604       4.39290399      95.91061995
H       18.03644332       5.23415730      96.07611641
H       31.87269343      20.48693046      94.87982349
H       32.23832463      20.55956822      93.43955616
H       25.37087339       4.34823198      82.10732362
H       26.76667444       4.10992078      81.41105514
H       16.83198954      13.07044431      53.79016542
H       18.12246978      12.30853193      54.02250293
H       32.18330157      26.59118193      75.04486574
H       31.02461805      27.52719954      74.92239879
H        3.82059113      21.21135721      69.43209295
H        2.71740384      22.17377738      69.80174284
H       16.42429746      27.19105561     105.94328276
H       15.20354057      27.15935829     106.95088262
H        6.61770704       7.17483467     117.02396469
H        5.58761613       8.17341325     116.44222955
H       12.51532296       7.79186632     103.34500827
H       12.77256543       7.25762127     101.93018480
H       20.44607689      18.18594315     110.46111510
H       21.07155182      17.48948511     109.18934014
H       19.46320380      32.43087859      87.53971023
H       18.69836498      31.18507590      86.95419926
H       27.30829700       0.35073279      73.09468657
H       28.53370046       0.58490537      72.16576902
H        9.75289831       3.68698822     118.67742648
H        9.03126245       4.74558058     119.48968820
H       21.36865908      29.02195276     105.84509898
H       20.81478983      28.02769263     104.82921020
H       31.86581720       9.08937091      67.04874718
H       31.46546033       8.18241504      68.21783112
H       32.61570455      13.94239870      73.12154152
H       32.33324969      15.39690656      73.61180146
H       13.01697874      32.31222791      83.58946092
H       13.98012165      31.29681134      82.82015080
H       22.53742048      19.54941196      69.78482256
H       23.80818662      20.02759188      70.55573307
H       32.30604510      18.92348331      74.52821786
H       32.42704014      19.94864155      75.67172044
H       18.83016979       4.09462482      72.25027499
H       19.00654130       5.13318299      73.36351545
H       33.11455154      11.16541896      85.80856561
H       33.94387054      11.51461488      84.56004818
H       11.14894411       9.74937152      86.80053568
H       12.19051011       8.89430682      87.56140817
H       10.91031214       1.80493111      86.93936561
H       11.49008009       2.07870900      88.32578356
H        5.63937850       8.95959377     109.94734797
H        6.42687102       8.84915816     108.66671331
H       16.01463892      16.37387931     101.05464925
H       17.50938742      16.30622723     100.71893950
H       16.26863303      10.72804921     101.85744663
H       16.54124044      12.19622906     102.21967861
H        3.70872435       5.58118309     116.02957656
H        4.69468601       4.58773641     115.31974651
H       30.56428136      14.18733088     104.83852908
H       29.87368601      12.95475148     104.25051326
H       18.14493752      33.50963536     110.72505838
H       19.41168837      33.02744996     111.38498157
H       23.50057692      12.49937374      88.12078547
H       22.41963566      12.33647990      89.27504393
H       22.94268004      31.18799251     102.21417269
H       22.42722343      31.55200179     100.82736381
H       15.51344755      23.57201302      93.14446138
H       15.54374730      24.52273071      91.92106894
H        4.39083715      24.98279886      96.73625005
H        4.23663505      26.39812092      96.31706046
H       18.52566016       8.29464756      80.12476003
H       19.53945798       7.36810920      79.50737846
H       11.04218374      32.90413929      58.26975149
H        9.62421100      32.40610546      58.67597450
H       23.83820930       7.88160090      68.27418425
H       24.31537447       6.54543076      67.71867091
H        2.47182078       6.47198491     114.84372244
H        0.91761894       6.32587823     115.20933357
H       25.87075589      31.84588781      75.74688329
H       25.69175437      31.46864743      74.31019295
H       11.73912440      22.66855360      69.97082468
H       12.75180226      23.62546551      70.53138357
H        3.39482308       7.18763086      69.70845125
H        2.02403122       7.55552546      70.23494667
H       15.81681523       2.86551539     112.66009625
H       17.21305395       2.42319277     113.07760874
H        3.98223442       9.14346788      60.51921829
H        2.93779372       8.90517019      59.43898893
H       21.34156019      -0.49938761      67.74842204
H       20.10363700       0.40512521      67.86151023
H        9.80937974      30.26186951      73.38483261
H       10.85727462      30.34649317      74.55677871
H        6.32123446      11.41166295      68.28771631
H        4.94985841      11.95625524      67.92534326
H        1.53642492      24.22102489      72.36813058
H        2.92380885      24.93413667      72.48699503
H       11.69025047       5.08835286     111.11248175
H       12.95447547       5.89592684     110.99625527
H        2.09383536       3.06179444      69.74518588
H        2.79222758       2.37621540      70.91196271
H       18.35512029      18.42554481      66.12526278
H       18.59733168      17.16026696      66.92032842
H       18.27925317      29.15389397     100.47436256
H       18.81812661      28.25708488      99.34338614
H       11.61660654      21.12601841      69.02172497
H       10.41825955      22.04726524      68.54107384
H       27.01872911       7.94240640      61.66755473
H       28.43537500       7.81872604      61.19937009
H       28.80655685       1.98797215      74.28768614
H       28.94915984       3.56137702      74.45511960
H       13.62187321      32.66022733      78.85352513
H       13.32369616      33.24142845      77.46186774
H       17.91691356       0.60781669      60.49834856
H       17.58526567      -0.05986050      61.85911794
H       13.69362634      21.02950279      92.08073611
H       15.16190080      20.69796353      91.64415572
H        4.31491263       0.13432589      84.99490734
H        4.27832637       0.03883921      86.50291805
H       28.50381198      24.37521854      83.17295942
H       28.93608919      25.77513439      82.65826609
H       16.80712968      14.90953121      82.25015605
H       16.00790164      15.14519447      80.97615209
H       18.86800408      15.10006490     105.92984977
H       19.43596995      15.05125703     107.33575726
H        7.86299720      30.04737558      73.23487650
H        6.34496351      30.10684858      73.18014428
H       22.90203672      16.60068717      92.81246490
H       22.48679193      15.12581340      92.89434395
H       28.56988786       2.42639887      96.64750626
H       29.10274094       3.02874841      95.34198878
H       28.79837753      15.52074365      67.20938540
H       27.50659725      14.80909312      67.72576451
H       33.55722111       5.84742532      57.92787580
H       32.09653145       5.74460207      57.55891905
H       31.25114881      26.75677841     102.39220178
H       31.75157867      25.39049476     101.85507619
H        1.20077018       4.54748835      82.98974213
H        0.95189439       3.60785042      81.78794816
H       13.24552487      15.76072163      83.91847437
H       13.73448485      14.36249325      84.19834963
H        2.38247059       5.65690162      60.03221608
H        3.89916535       5.80465605      59.85227823
H        8.67115747      13.16993782      54.06679265
H       10.24628314      13.17910176      54.01938113
H        5.53618187      19.43150818      76.21467055
H        4.29967884      19.10612567      77.03952705
H        2.72192222      22.49923946      85.18327875
H        3.98397230      22.53125133      85.98291096
H       15.30542253      29.95947980     105.89190479
H       14.43406471      30.37226428     104.70969993
H       12.90334702      -0.27642597      94.55070324
H       12.63984517       1.13772842      94.96211918
H       31.84372853      17.37673385     119.59424034
H       31.41656793      16.39492782     119.84957576
H       17.86702518       2.08020713      77.21283493
H       19.40697175       2.10747133      76.99652093
H       11.01551525      18.12334071      58.25746174
H       10.22049533      17.63542607      57.04693133
H       19.28503822       7.10840176      85.23128196
H       20.77888469       7.00443256      84.84385191
H       24.50592153       9.59415831      74.07959916
H       23.00148990       9.60592182      74.27437432
H       25.53374788      29.89966111      67.13304584
H       26.77280228      30.18165477      66.31330572
H       29.61851568       5.41884683     111.96441779
H       30.13526588       4.46600117     113.06804829
H        6.33237917      31.44439303      69.17488774
H        7.54251483      32.31417834      69.46934219
H       27.74196659      27.58428505      85.88098094
H       28.46005366      28.86823493      85.18203259
H        0.52284532       4.58968319      91.54961460
H        1.89409805       4.44444839      92.23507292
H        7.14766107      21.63823115      82.21398559
H        5.89891196      21.78635413      83.02717577
H        9.81576778      30.71080893      71.49435287
H        9.89088203      31.67406642      70.33561574
H       16.44352379      32.51866896     113.45913132
H       17.95128125      32.35493177     113.16056481
H       11.10290311      24.83019505      70.70034137
H        9.93951533      24.63434721      69.64069098
H       30.64075309       1.28156716      92.42455201
H       29.57423098       2.36077340      92.23344294
H       11.37018056      29.89459068      93.75405405
H       11.20778844      28.46612251      93.27351790
H       17.94234896      15.84524204      89.91904570
H       18.15576619      14.67366187      88.86899635
H       21.84080618       5.68845784      98.91794547
H       22.61151051       6.01968380      97.63588324
H        7.33855480      21.61178376      54.74354313
H        8.06708734      22.98052290      54.85731196
H        2.63768249      26.05683426      65.58756409
H        3.68923311      25.07953185      66.00323295
H        8.17508019      25.32744213     114.72804690
H        9.08924777      25.56112371     113.52998482
H       14.76613378      20.60456122      66.43241513
H       15.13633335      19.70840841      67.66896543
H       29.83606652      29.93856741      87.37854175
H       29.76058513      30.21442766      88.89811812
H       32.14304218      28.97178715      60.64995166
H       31.55947127      29.11464520      59.22095365
H       26.38268463      10.63484786      77.84856601
H       27.12587118       9.30840539      77.84317754
H       24.85059407      23.67021269      89.60371403
H       24.49676995      22.40870053      90.47565855
H        5.51267021       0.60543435      95.87728176
H        4.11438790       1.16751590      96.13043471
H        0.41649523      11.94460069     101.52851661
H        1.48823846      11.64805565     100.47706428
H       30.89582675      10.76182307     103.88462652
H       30.12947834      11.54554149     104.99089982
H       15.83456680      10.02963812      81.92008446
H       17.02812360       9.98664125      80.95320573
H        8.98457678       4.37738154     112.61980557
H        8.30707298       3.34496874     111.80755909
H       28.51128574      10.40076981      85.96120756
H       27.37974750      11.24869504      86.50891724
H        9.09220196      28.90748146     106.13802541
H        9.11834854      27.39639575     106.57464672
H        7.99673603      25.56104711     108.11046799
H        8.97634494      24.35978635     108.37765878
H       19.06756837      -0.01296082      69.99894993
H       18.70812800       1.41820428      69.57597548
H        0.73987864      23.80298743     112.10517992
H        1.81685859      23.33063600     111.15384206
H       15.32742874       0.33509396      93.10738907
H       14.50864157      -0.41278495      94.11481091
H       24.82541471      24.67593789      59.82330682
H       23.81495929      25.62509217      60.48873584
H        9.96420760       6.61198659     108.53106930
H        9.66438160       5.32867395     109.23177327
H       14.39140224      27.55674412     111.77348403
H       14.57870512      28.55429924     112.92783442
H       28.32663671      11.98331006      76.60422236
H       29.02780773      12.34848959      77.95416871
H       12.89214331       6.51389064     106.00883778
H       11.68492269       5.80832740     105.26471186
H       16.67062692      20.27779265      61.27383436
H       17.84307007      19.53099143      61.97219478
H       27.11877591       2.05434942      91.40106157
H       27.49191564       1.72032534      89.93619157
H        0.83346635      15.28259345     115.28546576
H        0.55675093      16.54697853     116.07249542
H       30.76607824       7.52702978      74.17331655
H       30.00402642       8.57033485      75.04758715
H        8.75726641       2.69622174      75.51112433
H        9.50747798       1.57683591      76.13040616
H       32.77837992      21.86976529      92.86399639
H       33.02727640      22.51584938      94.18972167
H       16.26061642       7.86778053     110.70714141
H       16.56972749       6.49208617     111.33321254
H       13.97937867      23.94107032      62.11980425
H       14.68918179      22.55639146      62.07687262
H        8.04674492      21.07736548      77.61421236
H        8.30351112      19.61650352      78.16140267
H        5.58307964      14.73323545      99.38309421
H        4.79981230      13.37442019      99.52064893
H        7.23025902       7.46734592      62.02837471
H        8.48977721       8.13595756      61.46506467
H       15.84604433       6.17452644      96.06722941
H       16.41656152       7.42064194      95.40483116
H       23.13775730       9.57445803     107.80997936
H       23.15946454       8.10195703     107.95550993
H        5.92802540       3.09752492      66.23366336
H        7.44198853       3.06496098      66.02929076
H        5.45433639      23.09331559      53.70625870
H        6.50816194      23.76268680      54.60987724
H        7.35834816      28.08063404      95.86498040
H        8.68056176      27.44454273      95.50204227
H        7.66151550       4.54243583      80.09875021
H        8.61985795       4.23195475      81.22425226
H       17.38349809      19.81117519      78.70340912
H       17.55185293      18.47667693      78.06350025
H       21.51864059      19.32339281      64.28981049
H       22.99360506      19.83093201      64.55759126
H        6.99560056       0.22475272      71.90635376
H        7.50574660       0.79824466      73.27595523
H       17.70540666      28.51310297      61.24779267
H       17.88637837      28.05234775      62.71573313
H        6.03576371      29.87649709     110.02325024
H        4.58774249      29.83125005     109.41320254
H       27.17353907       1.09155978      75.14936741
H       27.38256000      -0.26739608      75.21583523
H       11.21278552      18.34356598      81.99735987
H       12.45497191      18.52132434      81.25852704
H       16.64767581      25.35267683     117.03098232
H       17.13312078      26.79664138     116.82001217
H       11.49014500      28.71828208     102.48017094
H       12.37426322      29.13863081     101.28036801
H        9.28834994       7.23405995      89.86987339
H        8.27255078       6.53736356      90.75891157
H       32.30874260      12.92360164      78.55747358
H       33.21091678      14.16165575      78.76980066
H        1.24576650      16.75477716      78.36305544
H        0.47713854      17.50328752      79.46301701
H       26.88379378       5.92521135      56.25014889
H       26.49570118       4.99876108      57.41561444
H       -0.22382337      16.24704954     108.94915925
H        0.80562522      15.16326627     108.79314264
H       23.00327147      22.40371528      62.22126035
H       23.73696566      23.17414046      61.26702018
H       17.67196099      22.41755011      81.88701755
H       18.70868548      22.63224939      80.77541023
H       18.88999600      19.49965738     119.15117794
H       19.02295949      18.11892106     119.80347943
H        0.40223817       4.18539358     102.71233318
H        0.56557110       2.97201623     103.67652803
H       26.91896728      15.10303300     107.81287156
H       27.25422027      15.02276923     106.34445973
H       32.27910152      25.43603470     105.66694949
H       31.61358533      24.55001139     104.60164333
H       30.54066162      10.87902697      67.08788302
H       29.25264636      11.16595772      66.16791492
H       11.64306196       2.88263567      55.95007414
H       12.41714038       2.60936966      54.65331433
H       24.47539318      31.71841932     119.11718100
H       25.44178561      30.72207393     119.65873258
H        5.26846620      11.82624838      81.57796352
H        3.87096817      12.35923587      81.99584292
H       30.45727546      28.46035185      81.96013371
H       29.83958565      29.21260578      80.72870695
H       19.61000014      32.83120804      94.00608974
H       18.32817094      32.62257516      94.86105488
H        3.30088528      16.61680737     115.50431081
H        2.85754264      16.23815001     116.91849329
H        7.17247199      13.02991490      62.31156854
H        5.94677647      13.34039316      63.12499334
H       20.38866305      29.41397864      73.31824003
H       21.45878489      30.20697862      73.99760938
H        5.99584235      15.83847553     117.28847803
H        6.82698821      15.98832868     115.92002611
H       21.12254186      32.23790162      95.96633621
H       19.70720433      31.78229771      96.40797532
H       29.03771368       3.69635700      64.43306567
H       29.19419311       2.36213136      63.70294203
H        6.40110314       2.16726123      98.32228333
H        5.18247081       1.97359494      98.92948990
H       19.51224773       6.46945172     114.13057620
H       20.98692217       6.14078466     114.38761706
H       28.78577882      28.57591648      55.57030949
H       30.04941857      29.43130981      56.11303357
H        5.55293695       8.83437605      94.05402816
H        6.02781265      10.27799792      93.77115678
H       28.88703819      14.89292721      74.86201624
H       27.43549166      15.07050943      75.33902150
H        4.59488313      19.08767591      62.14181264
H        4.67599327      17.57665058      62.55590436
H       26.21459443      25.89882138      77.24538774
H       27.14161632      26.18051566      78.46852542
H       29.87258426      10.70445458      58.13189030
H       30.26042881      10.51173678      59.55382288
H       12.90464313       7.03908763      61.11256835
H       13.15117380       8.20492778      62.17195176
H       31.96141016      26.18110972      86.72178046
H       32.50106041      24.79161783      86.32058738
H       13.39959200      32.49659503     101.97011670
H       14.41523364      33.32995216     102.71800345
H       13.72889078       6.02904969      89.72563452
H       13.26234958       6.93071617      90.88419384
H       29.79095067      12.41177065      73.63450892
H       29.97274386      11.14584868      72.80077799
H       27.71436500      14.92208119      70.85668355
H       27.97279418      13.41268823      71.08534228
H        8.41707460      15.03807703      86.14077830
H        7.04292085      15.48122044      86.44897096
H       29.42387246       5.92736338      84.59270026
H       29.03294809       6.22222176      83.10994800
H       19.36715334       6.98494286      89.09183960
H       18.88389725       5.93889199      88.07771737
H       28.18014950      24.70032421      78.25917747
H       28.81546989      23.49885686      77.56371443
H        0.74613713       2.43899793      67.65184534
H        1.06786581       1.38054235      66.57175169
H        4.20195443      12.02331981      59.15490187
H        4.59383261      11.71130113      57.66586113
H       14.21803682       7.92324800     118.13677916
H       13.58417263       9.08614243     119.00171345
H       15.35038030      13.33253028      54.98230007
H       14.92820182      14.21285346      53.79034604
H        7.63368151      11.93236981      69.09693635
H        8.33997630      12.95810255      68.20001624
H       16.43105844       2.65153923      54.49355447
H       16.38768201       1.94459906      53.13580825
H       24.86298170      23.79750100      55.21180149
H       24.65531065      25.32232834      55.42173583
H       24.91543892       2.42498382      76.02879232
H       25.52961662       3.43540404      74.98437148
H       13.77079527      16.03064131      78.87341103
H       14.15673738      16.36655438      80.32832385
H       31.70351489       2.92900608      93.03987575
H       31.27597557       4.26077796      92.51159009
H        4.31628961       7.27701422      81.19468898
H        5.74312554       7.58958689      81.76666249
H        8.93585449      29.71793247      70.10675249
H        9.23766382      28.52764349      71.06361594
H        2.38896152      28.42100115     108.46154502
H        2.80655390      28.32990409     106.98626836
H       11.56685285      10.48605846      98.99691894
H       12.23100429       9.21468488      99.44145507
H       19.05561572       3.15821500      55.32490997
H       20.17135549       2.92292456      56.36218765
H        4.06310649      29.09554127      61.60918435
H        3.76592442      27.62865129      61.74112401
H       23.66044863      17.48993731      73.10018490
H       22.66002554      18.53678510      72.54407691
H        1.67139270      18.34891266      76.86805780
H        2.84854962      17.37376096      76.68345139
H       16.28320961      18.59639992     115.29110336
H       15.83476544      17.50742080     114.25885819
H        0.26404855      29.48281688      65.50584870
H        0.09424843      31.04524762      65.58320207
H       24.26956166      23.53797092     116.99496334
H       24.29756407      24.99641845     116.58931502
H        1.30254781      29.62728110     118.66091281
H        0.99449415      31.06933207     118.66615457
H       25.53737984      25.46696374      57.42766364
H       26.90113829      25.29203277      56.88211690
H       23.37251472      27.44549194      65.11582492
H       23.79335891      26.37957572      64.13762857
H       21.70710348      22.89945459      81.88623349
H       21.79446534      21.43587352      81.67322805
H       30.41155032      12.80723040      59.79270706
H       30.45587445      13.45130454      58.40370105
H       30.28482612      27.15266306      69.35639380
H       30.52697263      28.15357650      70.56480147
H       25.55242781      13.50012172     115.02002998
H       25.37699667      12.65354055     116.28644582
H        1.38161386      10.27768892     107.98496375
H        0.06341673      10.47036381     107.21660591
H       25.04709986      13.66503333      78.56539846
H       25.82902015      13.29473830      79.87074527
H        0.85049719       5.26344671      86.96077980
H        1.73840037       5.89033180      88.04831903
H       30.54381551      31.00975412      82.10418811
H       29.51830456      32.00502534      82.57374288
H       30.29210388      22.10650628      82.72176700
H       31.04771032      21.96276009      81.38605796
H       25.35816876       9.45474609      97.74757587
H       24.94395873       9.41455674      96.28599062
H       17.84751500      27.13676670      81.92863170
H       17.72707898      28.40491997      81.18067599
H       21.71828480       2.17892639      89.60443968
H       21.25907496       1.21003693      90.58965517
H       11.08879489      18.61763888     100.06594356
H       11.15823071      19.99395043      99.30686634
H       33.01431331       7.87183371      88.67706420
H       32.16615538       9.10558615      88.85778556
H       30.26680064      30.26601528      61.24635830
H       29.71128289      31.68901642      61.63058080
H       19.24967082       9.89350133     106.14921753
H       18.76731319      11.17101777     106.76769897
H       26.15298916       5.72869142      79.19517312
H       27.23667259       4.95582349      78.38394537
H       12.91752195      24.68253254     108.65408107
H       12.85450152      24.26138526     110.10939352
H       13.78873524      15.05336051      75.67866580
H       13.31357109      14.76203863      74.28884337
H       28.45106793      19.45852055      54.36559542
H       28.48688583      18.07845444      55.06565462
H       11.03952637      17.76118995      87.64901799
H       12.46017880      17.53743181      88.35174351
H        2.09191184      31.28566380      62.93552217
H        1.58840617      30.76802964      61.56859953
H        8.40140814      18.20333631      84.69911281
H        9.53193162      19.11979912      84.31415850
H       11.33765652      27.17436299      79.79515839
H       10.78356639      25.66984718      79.86775949
H       18.50421657      16.13024636      59.56436772
H       18.53587208      16.10139605      61.08214319
H       13.88877996      32.08262958      84.29348046
H       13.63706212      32.17958925      85.76537454
H       18.65323415      14.17633312     111.00057697
H       18.62223368      15.69167624     111.15901291
H       23.26754167      31.80007651     112.24088309
H       24.11072755      31.80375078     110.99893947
H        6.82214081      30.48335501      85.10339825
H        8.33440292      30.10159939      85.27200015
H        1.08541355      12.74963927      64.65025511
H        0.55636924      14.10666404      65.14401783
H        6.38463459      25.60314333      74.97151244
H        7.88870841      25.64906735      74.91962029
H       13.22269923      16.68264775      91.41438617
H       14.39300515      16.64448554      90.47129193
H       20.90591763       8.86807031      54.70788607
H       19.53569767       8.19176596      54.59061615
H       31.93076457      22.56036105      60.78118363
H       31.79426405      21.16025728      60.18223680
H       25.27003984      12.64865313      98.26489161
H       24.45262849      13.27207846      99.45527410
H       14.85363788      13.00634871     104.37126180
H       15.39933343      12.55578911     105.69924551
H       25.98255751       4.35477566      70.99312526
H       25.25047909       4.52633527      69.65875977
H        8.74225997      21.59486738      60.91194287
H        8.68027210      22.31308875      59.58807838
H       26.95151499      33.07848132      91.07430127
H       27.07865713      32.57580010      89.55891433
H        3.96839826      16.64185748     102.96210987
H        4.93678580      15.69293759     103.64056823
H        8.64595921      21.91869247      72.04518433
H        8.50838675      23.36817393      71.65728223
H       16.51938777      18.09054307      90.50841960
H       15.66767049      17.03713009      89.84278625
H        2.02536559       9.86739778      78.28197704
H        1.84069522      10.99259829      77.23641115
H        1.01417574      10.97331212      66.98785597
H        2.29587954      10.41210967      66.41957722
H       30.33274395      11.55051907     115.72420903
H       31.48429494      10.73289740     115.02090302
H       16.62772060      31.01998228      90.90519812
H       17.70581692      30.82189433      91.93842561
H       13.62147273      30.73226482     110.12217289
H       14.76602949      29.95597411     109.50593493
H       31.57475835      -0.02604535     105.81051182
H       30.83849615       1.18646808     105.06382855
H       18.33859074       1.58382770      94.54464540
H       18.71980463       3.09208511      94.75124585
H       25.99379909      27.83131106     113.35290792
H       26.22060205      27.90590760     111.81144530
H        5.17024923      28.95358598      58.53691216
H        4.89930643      29.37458063      59.94132788
H       17.28212571      10.92445268      95.63093377
H       15.96699810      10.27779252      95.89991317
H        4.84604196      30.52800631     101.43949787
H        6.23452509      31.02911043     100.94349528
H       29.09672218      10.18045971      92.43285798
H       28.35266181      11.39274286      92.96202343
H       18.64769302      17.54628256      71.60129723
H       19.87205230      17.76003983      70.57886116
H       25.29696109      28.46108773      71.27997691
H       25.10730045      29.47765853      72.35813623
H       20.03998600      33.96619902     117.00784194
H       20.07947507      32.95823378     115.83001342
H       30.34846890      31.09969001     101.14549800
H       31.06025567      32.29383252     101.80178414
H        9.68110479      18.30267062      95.05328188
H        8.55223961      18.59267047      96.06235297
H       31.27676140      11.99146441      85.73331860
H       30.30008241      12.24086360      84.56720471
H       16.58605060      31.77046331      80.26534634
H       17.74782096      32.67606670      79.86164095
H       11.93624907      15.00761673     105.27529435
H       12.56119613      13.61915469     105.50769009
H       23.98314025       3.47140475      87.41678741
H       24.09302061       2.46432203      86.30820071
H        9.18395404      12.98980605      77.69524869
H        8.20197206      13.94984555      78.36554950
H        1.01865118      18.04727475      61.69841570
H        1.67668486      16.71005970      61.68740303
H       27.75251597       7.89308410      91.98558687
H       27.07287352       9.22596512      92.32466258
H       23.34268111      12.29788627     115.23851999
H       22.84149210      11.17854878     114.29866010
H       26.47544181      26.39866783      90.07976599
H       26.93765711      26.72933487      91.47662516
H       15.12517209      19.34489688      81.41481685
H       13.81600591      20.07894324      81.44922653
H       22.63000713       9.77024492      86.36498985
H       21.32500367      10.48076423      86.79519234
H        8.68025538      29.83699630      88.55219778
H        8.99483750      30.94301705      87.43052499
H       16.65484892      22.26217001      69.63947112
H       16.34620836      23.11151008      70.93401227
H       11.32348099      12.07671378      86.24625528
H       10.28569965      12.75928411      85.33164817
H        9.56700852      32.74334223      98.13739033
H        8.57520804      31.54635530      97.93232137
H        1.94421587      26.68892160     101.97833423
H        3.32427449      26.93180045     102.52391285
H       26.00860011       0.52946870      61.77438753
H       26.61040683       1.72743412      61.03453295
H       10.43635919      15.41666794     108.77566067
H       11.87669258      14.81998501     108.93497061
H       29.50245641      32.34424299     109.80128097
H       28.68957061      32.56007978     111.11032017
H       30.27553154       3.14441430      78.59640956
H       30.16553065       1.82911806      79.41610784
H       23.36521726       9.93983755     116.03279107
H       23.27379650       9.93866417     114.48362526
H       27.98965118       8.85882003     104.45614825
H       28.92712581      10.05650477     104.39112225
H       28.05891483      31.04297338      64.62795231
H       29.22496961      31.94151534      64.99980022
H        6.27337789       3.29835768      58.84432263
H        6.89363953       4.39343297      57.97666561
H        3.81694661      32.27985710     109.48541772
H        4.19610171      33.54405971     108.68543166
H       12.34325045      29.64005676     114.91447166
H       11.78172258      29.13169427     113.53471331
H       22.72524010      26.21836116      77.97651460
H       22.33411829      27.45452104      77.34688090
H       30.38396414      20.23710697      97.26196355
H       31.11903686      19.13929584      96.44498106
H       26.20857506       1.36216633      95.22730524
H       25.10011418       2.18715564      95.91021810
H       23.79762793       4.66301418      80.23509514
H       22.70168997       4.43110909      81.29208035
H        3.04584858      27.85304540      54.87970663
H        3.16496059      26.49025898      54.07051572
H        7.68544559      26.91027511      91.00770847
H        7.79895549      26.21299193      92.36640348
H        4.75331663       2.39858894      73.37289803
H        5.84581230       1.62618453      72.63985484
H        2.43743514      23.93345369      54.42451479
H        1.20949394      24.75252045      54.80659740
H        3.19183151      11.60531143      61.82853678
H        2.15864879      11.29260233      60.76015289
H        7.07402067      29.11663413     112.14133521
H        6.28741549      30.47773397     112.29007672
H        7.75245982      25.40320370      66.96776407
H        7.43900303      25.33226401      68.47578346
H        9.73329570      15.80376687      63.98665931
H        9.96261211      15.75349171      65.51215057
H       28.48420498      22.80506716      83.58140323
H       27.73216464      22.64431772      84.93926946
H       23.60059739      21.05231263      81.16798352
H       24.19779222      21.90876582      82.29432733
H       32.87838429      -0.35922933      97.88356205
H       33.83254571       0.77640830      97.26858139
H        4.25123937      31.13072341      72.45856847
H        4.58675909      30.29386431      73.69892993
H       27.01048615       4.35383869      64.21104464
H       26.23619268       5.00467866      65.37217176
H        3.76464218       9.60616010      90.60589089
H        5.17929701      10.23217988      90.28519186
H        6.13303655      21.13981218     115.69902029
H        6.29442088      20.18573955     116.91158807
H       12.99766945       9.74626779      55.15886577
H       11.45705874       9.80022508      55.20850015
H       16.49987763      10.28946561      57.56461763
H       17.65997311      10.61582693      56.56263138
H       19.10328777      17.53569156     113.01627774
H       17.83220505      16.91901844     113.69703693
H       23.78166326      16.58886214      63.98740871
H       23.98455367      15.67336282      62.91318016
H       13.53987320      18.26394648      84.17113905
H       12.71227738      19.22148832      83.41197473
H       25.46805504      10.62593249     117.24969166
H       24.37540055      11.65723590     117.43215625
H        3.58313005      30.43271820      92.82246142
H        4.74309411      29.63480442      93.44415030
H        6.37327038       2.97176625     100.56670115
H        4.92778314       2.80087698     101.31722148
H        2.24201235      11.66690508      65.91732576
H        2.78463474      12.95058151      65.43451563
H        5.31404337       4.38191735      98.54511231
H        6.59952696       5.06543144      98.80043022
H       30.47973989      14.18944790      83.66369102
H       29.01333444      13.54967212      83.79882843
H        5.21993797      19.61210368     101.75269590
H        4.54569152      20.97784908     101.86529268
H        2.60647161      30.76632651      81.27720390
H        1.61078676      29.63046377      81.09117382
H        1.61783196      11.10504620      95.93067798
H        2.07395361      11.54868126      97.42731274
H        3.34025800      20.56180955      82.71692119
H        2.90701637      20.87383352      84.16013809
H       26.87986588      17.54505912      57.60235508
H       28.28622569      18.00609789      57.49208682
H       19.23096760      10.49561237      74.41769096
H       18.12744623      11.57122371      73.78063605
H        4.28474412      16.05984624      87.48300531
H        4.72094279      16.76517199      86.22914045
H       27.83622702      27.25871490     106.26860685
H       29.10707757      28.08702434     105.89321572
H       -0.49892412      16.91816674     101.18294175
H        0.96078845      16.84085477     100.85474724
H       13.50025783       4.36352520     115.19264312
H       12.52545969       3.20586654     115.42411281
H       11.13915238      19.82226724     113.67932622
H       11.20149662      20.93468295     114.71406162
H       27.39067222       8.99494621      83.09764325
H       26.69551595       8.43362638      81.82619219
H       25.00584207      12.42201355      68.58512658
H       24.74643868      13.39072236      69.74851248
H       33.01013538      30.87131834      91.56707439
H       34.01084875      31.98847342      91.18422815
H        3.04321268      10.26801502      69.51315442
H        2.73820626       9.14341155      68.55199957
H       18.33331230      22.49877380      61.87253034
H       19.21687440      21.27977902      62.06830936
H       24.02004376      25.43056405      91.62540386
H       24.32494130      25.07726813      93.11336846
H       18.03371864      30.68187747     116.57936989
H       17.59085696      31.88457258     115.77406853
H       23.40877948      24.80912525      84.42084396
H       23.67552409      25.30885397      85.88218244
H        0.10763397       0.14490161      82.52922676
H        1.30995009       0.87676669      83.13380347
H       14.46857555       4.84476753      75.33041284
H       14.02082825       6.16186990      75.83745037
H       29.96894681       6.58240779      90.73117539
H       30.14897879       7.63377659      89.63505711
H        6.47956117      30.74494370      76.70855849
H        6.66514498      29.67181122      77.75905217
H       10.00257277       3.63448725      84.90804718
H       10.05597540       2.36299300      85.79140929
H       28.59432361      13.57281181      96.11782402
H       27.73521174      13.95701392      97.29011158
H        1.89849683       5.87525622      72.45910367
H        0.92749397       4.68939930      72.55583776
H       27.44990297      17.44451741      73.43912562
H       27.93247538      16.71628198      72.13430521
H       11.86995772      18.99149359      92.38548283
H       10.72940360      18.29617640      91.57592793
H       23.04236278      13.36573988      54.34080911
H       23.07098717      14.69854632      55.12090827
H       13.16173864      28.70020261      57.28496332
H       13.59057163      29.59557008      58.49888689
H        3.97036616       3.14062080     111.93814784
H        5.05874716       3.97973159     111.19933854
H       14.96317417      22.27047116     103.20216654
H       13.56629591      21.74325249     103.42087673
H       17.10778789      23.08623117     112.19657761
H       17.46080623      22.61931418     113.61840743
H        8.41396551      11.52859741      71.41013181
H        9.53171098      11.03150823      72.29802873
H        4.05070835       8.99815305      95.22133142
H        2.66233317       8.41016392      95.39810094
H       19.38143253       0.72284317      77.65972051
H       20.89969060       0.82295945      77.23922858
H       19.64325763      12.38917687      67.25226737
H       19.86511165      10.94505180      67.00494678
H        8.89013638      32.62624364      66.46079386
H        9.18333625      33.75355505      65.54405462
H       33.17405649      21.56777305      66.15830735
H       32.42385273      20.54223619      65.27190320
H       14.63587760      23.27017069     105.96827850
H       14.93401891      24.64343297     105.42890168
H       26.69857269      -0.47013789      93.33013760
H       27.67281073       0.70055180      92.75418145
H       18.06119295      19.86689131      86.70832236
H       17.02200020      19.94584149      85.59908546
H       11.25782614      21.84597011     109.98274731
H       10.88539740      22.55668157     111.27965045
H        5.53982740      26.05653134      79.78376924
H        4.37686701      26.40289096      80.74738893
H       25.82357253      11.93628492      95.74155995
H       25.28244993      11.11112109      94.57168716
H       26.48771742       8.94400189     114.09521172
H       26.20729041       8.33864664     112.67335966
H        8.88734852      26.17040399      58.49498321
H       10.38475513      26.25264475      58.15086198
H       33.07454095       2.59126386      94.85666020
H       32.62190857       3.30695685      96.08260634
H       31.62946690      11.08128862      73.32126524
H       32.99424780      11.71130834      73.12052243
H        8.53190069      32.44772107     103.25948550
H        8.10848355      31.45832209     102.18281402
H        6.42923817       8.04926705      56.58107145
H        6.55149017       6.54128719      56.99819957
H        6.73983801      18.90598678     116.60297927
H        7.04542474      17.48080587     116.63742666
H       26.80473130       9.03680749     101.14806576
H       27.17758307      10.02729340     102.22334943
H       17.63666029       9.05788973      66.83313758
H       16.84437164       9.50459511      65.61104817
H       20.59666934      26.34271978      66.86291572
H       20.11028646      25.00965400      66.35638411
H       31.74764108      18.53902718      80.61612998
H       32.43317302      19.34756443      79.47381920
H       10.03649687       0.59958304      86.58545795
H       10.22694125       0.28551582      88.10585035
H       10.02892031       0.18717590      93.52140065
H       11.00962804       1.14813685      92.79278992
H       27.97425656      31.28014385     114.34155860
H       28.97130193      32.00567382     115.21379363
H       26.01310775       3.09793611     107.91324421
H       26.86577150       2.38449288     109.00345989
H        2.51515578       4.88983767      95.91159448
H        1.03946534       4.50864497      96.01307978
H       24.46214285      16.85223664     102.51480480
H       24.53079676      16.15836927     101.11427337
H       20.36340647      17.31313801      74.56175977
H       19.47981315      16.05694940      74.76004559
H       11.50264648      15.73408557      76.45344809
H       11.71747425      16.46311996      75.07196608
H        1.81549038      20.53672541      91.01276464
H        2.97416340      19.64941276      90.76392676
H       14.20459879      17.14528606      55.47586924
H       14.83017713      16.73691064      56.84464661
H       32.31423293       1.20057909      99.96234436
H       32.36525069       2.73863932      99.91122484
H       29.54930968       5.73358212     108.88977316
H       31.02911344       5.60867926     108.67789452
H        4.20286053      33.85643600     117.86038139
H        3.14909347      32.94426230     117.14291101
H       24.24083226      20.11821491      63.64540492
H       23.96857087      19.11113402      62.46182404
H       19.02148532      29.48694883      54.13670602
H       19.42979084      30.42056457      55.30855718
H       20.94456514      10.03253533      78.25756940
H       20.82001001      11.22544645      77.29801086
H       19.37901803       7.28911372      93.49387095
H       18.72783658       8.54386661      92.80709927
H        8.54780674       9.11071663     107.56024476
H        8.38419317      10.64352685     107.60241326
H       11.11518356      24.91166000      93.75449146
H       11.12858257      24.50739946      95.27752070
H       28.81882033      31.81840917      97.27913826
H       29.56308657      30.50737701      97.90932333
H       11.46541359      32.42592945      59.68693522
H       10.36329899      33.28001506      60.34572527
H        1.39511004      19.72645134      56.26699800
H        2.30092263      18.78690898      55.62475715
H       28.46271821       4.88558553     110.95911645
H       28.27332216       4.02819889     109.73958572
H        9.02282058       9.80345755      96.55798819
H        9.41084505      10.90512743      97.56661366
H       11.57860940      17.55120128      69.56418563
H       12.03102233      16.12022787      69.92981016
H       27.07769725       4.84071149      84.57452799
H       26.90835873       6.05294456      83.65677955
H       25.48831431       4.54259114     110.58697517
H       26.16899037       5.73817985     109.80009823
H        6.93776016      24.76038404      90.22387738
H        6.84788415      23.83351793      91.42954507
H        2.47887163       0.83166022      91.14913151
H        2.64557772       2.36192949      91.42426615
H        5.23981697      22.71850322      93.23879441
H        5.28451955      23.88022053      92.27089257
H       10.11996836       8.44446487      74.38200353
H       10.55771092       9.31273118      73.22437122
H       31.44167457       3.55737884     105.25096376
H       32.25467242       2.27041137     105.09852300
H       19.40952049      27.28601064      76.56279933
H       19.27122976      25.65620767      76.27435572
H       33.11738573       6.79910644      55.38521042
H       32.92854397       7.06360619      56.86387723
H       28.39714602      27.59351360     101.84797748
H       29.74436948      27.47771158     101.02336134
H       32.33704355      28.82950462     118.83705280
H       32.89042316      30.14115128     119.40691626
H       10.91306895      27.65462814      62.17278465
H        9.75765429      28.39277493      61.36474779
H       21.11921854       2.98032709      69.67984733
H       22.31083232       2.56722188      70.51027959
H        6.08062142      31.62637928      90.22836414
H        5.85150164      30.11813349      89.81254849
H       22.87767911      23.91494258      86.74288794
H       22.22250639      23.61637493      88.09171041
H       10.02400649      20.06070915      62.53724122
H        9.91816083      20.76391899      61.20685932
H       27.86120802       8.30730392      71.18521615
H       28.38481288       9.64061945      70.77640692
H       14.90713863      32.58031724     104.21725940
H       16.09757598      31.97716850     104.56624868
H       30.62252119       8.74959437      63.79301479
H       30.39970929       8.98737331      65.32673604
H       13.47892708      24.07349281      74.87797851
H       13.58150093      24.66898392      73.47584699
H       21.54449368      28.76960804     113.64506841
H       20.99364277      28.18653933     112.38348404
H       31.37742935       7.23148859      96.34339895
H       31.96593684       8.55255271      95.75567187
H       28.97118167      21.73766707      70.54789889
H       28.39991043      20.86211182      71.70166706
H       16.27709954       4.34566486      83.62155981
H       17.61864841       4.58181724      84.34680079
H       12.46276462       2.69827222      82.71115688
H       13.30334834       2.87827597      84.02914167
H        6.79717905      24.47615486      80.23755301
H        5.30034562      24.34493023      80.82274302
H       14.75405340       4.53162812      62.51459720
H       13.99810334       3.54266127      63.51288274
H       17.56386067       0.51529265     104.32232619
H       16.27392493       0.47331822     103.47401012
H       13.56807290      16.44740553     114.57032198
H       14.27040483      17.82544486     114.56244390
H       18.78982211      24.95721442      74.15788449
H       19.12912494      26.40803165      73.64132618
H       12.25119290      32.58307523      75.17463719
H       12.77710593      31.40927673      76.09357672
H       28.29273865      27.77753738     114.63176780
H       27.67003568      27.34123971     113.33146671
H       19.59833384      20.56310220      71.52738020
H       20.02040476      19.93667127      70.18109142
H        1.40991873       1.29244833      55.07973117
H        1.28417694      -0.20228537      54.78055789
H       15.50605278      27.71513061      68.45891221
H       15.68017368      27.60180649      69.95922525
H       16.96912239      14.11912404     100.39572979
H       18.32010912      13.29873155     100.08169029
H        4.55356687      14.10571447      95.52452722
H        5.70798825      14.99273499      95.07666128
H        1.16715445      32.20376407      87.03002848
H        0.32583482      33.49830124      87.09226685
H       17.55218605      20.03642347     101.09201839
H       17.62357790      19.42595181      99.67714270
H        3.85663266      17.13886028      68.81101496
H        4.62980401      18.28444363      67.95523324
H       14.57894593      30.07211562      76.72138471
H       15.39369669      29.04673936      75.82978991
H        4.22962032      12.53309210      66.74577013
H        5.50436767      13.18507210      67.35580289
H       31.55712619       1.88698875      63.24738772
H       32.55888697       0.72595755      62.91137869
H       26.10056673      19.85333562     102.84510228
H       26.23300832      21.20759742     103.39653160
H       16.63645720       8.19056707      94.12106093
H       15.99616196       9.55979380      94.30001834
H       10.31845272      -0.43857192     117.85515812
H       10.93230369       0.86296578     117.88430507
H        0.74383826      22.58773181      68.80219317
H       -0.54829564      22.81342090      67.96149973
H       30.12374782       9.33748056     108.62647400
H       30.89851478      10.53534663     108.02750203
H       15.03597119       9.14247381      99.33893852
H       15.62238771      10.29761432      98.53553267
H       23.85535705       8.48107718     116.71520845
H       25.01391338       7.53545116     116.85551712
H       22.24265413       1.04685163      65.51605176
H       23.22603481       0.81051230      66.64575320
H        1.24400526      25.01280872     105.56344416
H        2.66483442      24.57875857     105.93619884
H       22.66330247      22.31555716      57.05765829
H       23.85384931      22.67494883      56.20400676
H        4.00250882       6.19606191      76.65035662
H        3.21371235       7.12208827      75.68829584
H       16.06476610      28.26053240     108.06980315
H       15.60138001      28.48974915     109.55206947
H       16.43965827       5.85089425      80.87640630
H       16.35489748       4.76789626      81.98962405
H       25.13314043       0.16872294      99.14589407
H       24.51743816       1.18821454     100.20041713
H        6.21736950       5.22429788      85.91719219
H        7.04841854       5.02290558      87.23641722
H       20.62678879       1.23060735     111.22909502
H       19.70743141       2.29527960     110.50517137
H       27.16757669      31.27754398      73.04982409
H       26.24340640      30.10672150      72.71729819
H       30.02789999       5.56981924      98.40089985
H       29.71363887       4.35050252      99.27659570
H        9.02841234       5.82028971      97.42702588
H       10.21505421       4.86401510      97.28600590
H       22.24095317      30.62976777      75.00742890
H       23.43031667      31.38030253      74.34317129
H        1.58701452      23.31852233      74.79327599
H        0.82857865      24.12332884      75.77275199
H       14.88412457       9.43974644      73.34368618
H       14.14193769      10.68824678      73.75955231
H       27.60478238      31.40604897      79.05139519
H       26.76344717      31.02089589      80.30612761
H       22.09760329      18.76172635      76.07958996
H       20.86539464      17.85652619      76.17612776
H       16.17334163      29.80557580     119.26372826
H       17.11277660      28.67046038     119.59288415
H       30.13746211      24.68068258      65.34401515
H       31.22367404      23.60341009      65.62134204
H       23.14854747      10.95711082     108.29587044
H       21.97711923      11.25131770     109.24613528
H       19.59220353      32.41285721     114.47039347
H       20.93511514      32.06967869     113.70251829
H       23.30506601      21.08261957      85.12644636
H       22.17223391      20.16082684      85.60422775
H       13.97915665      18.04028398     109.87866651
H       13.82934156      18.85087913     108.62936205
H       29.24384938      20.90193733     118.27417879
H       29.42559950      19.35690552     117.99926998
H        4.37199011       3.74979016     106.92468571
H        5.04301801       4.30545660     108.19949622
H        4.09386577      15.35706580     119.55440505
H        4.58986885      14.45022984     118.40837049
H        4.68125012       6.56301366      87.17221785
H        4.68914690       6.03609027      88.58830554
H       12.45655648       2.25782318      57.91738505
H       11.27613198       1.30381436      57.66602956
H       29.59775586      28.73556326      58.98980187
H       30.72371026      29.60525424      58.32237137
H       11.45717730      17.92589066     118.77981768
H       11.07653326      17.02342405     119.94282058
H       33.23572661      14.05647758      60.89225607
H       33.47423363      12.92862707      59.92446875
H       32.21281961       8.10444165      79.31226016
H       32.84285289       8.16042367      80.71470261
H       14.40546873       4.01591591     108.06772226
H       14.34517449       3.94674400     106.49876181
H       11.56182185      12.46009108     103.47277178
H       12.85658674      12.32100390     102.62173870
H        6.50374991      22.51602051      88.13846367
H        5.95382331      23.21731198      86.90947667
H        3.80127838       4.93744088      90.37387833
H        3.16080643       5.10882604      91.73778475
H       16.07085180      15.79246222     109.50396991
H       15.70185951      16.91282005     108.40862319
H       29.54214225       6.41034329     103.49266593
H       30.74263358       6.59060023     104.54371577
H       11.85619507      27.16042330      96.60120527
H       13.36889824      27.13523637      96.49393906
H        4.74181384      14.36977783      53.86262154
H        5.15689517      12.89974199      53.52119376
H       27.53270819      26.86632874      53.77965777
H       26.02920638      27.37276268      53.77868261
H       28.39537213      24.35539018      79.46238589
H       27.48884188      23.27335734      79.92339954
H       18.52455022       2.72189645      88.99535716
H       19.35787386       3.90314238      89.19253175
H       12.53513565      17.01839203      93.68708037
H       12.39909279      16.30976844      95.04192050
H       21.17831491       2.15097672      84.11628229
H       21.95904666       0.82132513      83.90251674
H       25.32596971      19.13768606      75.43655323
H       25.37934711      20.19896798      74.29514794
H        4.18057822      12.33062066     111.83947800
H        3.73106536      11.33540927     110.82606307
H       16.41430090       5.80462544      55.84479541
H       17.18725461       6.80064819      56.71569881
H        1.91725400      20.79854509     110.48381547
H        2.65818130      21.11674668     109.16837700
H        2.70142454       2.93587898      52.89103217
H        3.36312034       2.83403631      54.23106839
H       15.58349709      17.81888719     119.82124391
H       14.15000660      17.54884692     119.38865639
H        4.22754523      17.35957719     109.85696638
H        3.77353596      15.98418067     110.35589283
H       28.96484939      33.34965414      78.98269249
H       27.94199098      33.76718529      78.02395531
H        4.26111288      14.67721995      83.95384996
H        5.20710532      15.45670924      84.75107478
H       12.34858754      11.29829216     105.31699837
H       12.38923106      11.09037729     106.88469012
H       21.89344668      10.81516926      70.36504983
H       22.60099484      10.04324615      71.53107468
H       26.40355553      19.83888997     119.02271896
H       25.48991502      21.03649257     118.93454172
H       20.40294148      14.31561326      69.19097396
H       21.58110593      15.23243929      68.94645955
H       31.98097181       5.84428390      65.47320005
H       33.10741578       6.10311541      66.36811217
H       32.07237237      11.94002268      83.74891986
H       30.93352964      12.80171528      83.22866197
H       28.63567559       3.71993666      59.39831829
H       27.36498178       4.33772547      60.01494364
H       25.01054898       3.96844827      60.75897366
H       25.33802129       2.89461459      59.69501474
H       23.30635239       8.75074377      63.11848502
H       22.55171616       9.09997037      61.86123646
H       12.08931867      17.35165253     115.12433559
H       10.55333215      17.26490574     114.90637003
H       29.95084853       8.90610888      92.77604257
H       29.87076709       7.75355209      91.80199231
H       14.81536829      24.26269317      76.24660712
H       13.40347696      24.10763113      76.89587017
H       16.51355231      21.55290915     109.69659475
H       17.60097009      21.30015517     110.76534487
H       15.15862882       0.63547550      87.20519624
H       15.98616648      -0.16562621      86.23625813
H       33.78708022      25.68042510      59.86482453
H       32.34457003      25.75588291      59.49268902
H       19.72750131      27.05058942     114.83035697
H       18.87803613      26.25801396     115.86184172
H       15.70394156      23.02367023      54.60267012
H       14.50965184      23.15094112      53.55697683
H       30.83256983       9.68119860      62.25110865
H       32.04343210       9.17348687      61.50676047
H       27.75367370       3.29904373      86.95048006
H       28.03815015       3.58704602      88.45545810
H       33.28321975      22.18136439     113.78844987
H       33.30424345      23.68332758     113.18332452
H       29.43273070      32.25995669      56.24200733
H       30.87278748      31.71992134      55.95934518
H        2.89275757      24.27993482     108.33992823
H        2.74983201      22.80949293     107.84986830
H       21.52813560      18.01059669      85.60241460
H       20.90147595      19.38146819      85.11555589
H       15.84376910      25.84652174     111.41463321
H       15.17333497      26.26141262     112.72052906
H        2.18014556      30.77887458     114.98201418
H        2.54466451      30.68202100     113.47644565
H       29.84337271      18.00371453      95.01991415
H       28.42875988      18.58152043      94.91840469
H        2.50956100      19.09316344      84.44851937
H        1.25080529      18.23104657      84.32258099
H       29.41074531      28.10340441      56.55407946
H       29.29748741      27.16678253      57.68912287
H       15.33178513      28.33979267      97.15960483
H       14.06222445      29.31732578      97.18884543
H       33.76762232      22.31284189     117.62410285
H       32.23256899      21.99191526     117.77980581
H       14.90788312      25.78243283      87.48624120
H       14.56237158      26.77500914      86.38989198
H        4.25798175      32.75429532      66.16497965
H        3.10294445      33.20500221      65.26026743
H       25.91826365       7.45351168      53.09616728
H       24.80548492       7.46446520      54.14688196
H       19.77665021      19.21480193     111.77957989
H       18.42244964      19.00155383     111.02191756
H        5.62518403       2.25034283      65.01268687
H        6.52577977       0.97636575      65.20179168
H        2.29978537      22.24980549      82.69430944
H        1.51451703      23.49155667      82.80847864
H        9.42556057      17.39385625      81.21466847
H        9.93071376      18.66013498      81.89483402
H        7.62538336      32.62540185      80.65433068
H        7.07633964      33.77613976      81.51842371
H       24.02295723       8.88859677     112.26704032
H       22.48308707       8.75885993     112.11534281
H        5.01984560      27.86431431      95.55385267
H        4.26743355      29.22068564      95.85410223
H        8.35785035      19.68853608      92.71437698
H        7.46501061      20.03821032      91.55480419
H       18.40453586      18.56726765     103.49707519
H       19.75795011      18.98627422     104.07729380
H       22.84012815       9.75107299      95.47878989
H       23.49140213      10.83247289      96.35975925
H       13.13322408      14.35592291      92.51139466
H       13.19122546      13.34283279      91.38779048
H       33.40774731      28.09595711     119.73758966
H       31.87135641      27.80344132     119.70847296
H        0.81714501      21.46420050     100.39765392
H        1.94550103      21.38734300     101.41485667
H       33.37407549       5.08334538      69.21476532
H       32.35204943       5.70698816      70.18692518
H       29.15547348       3.21490168      57.07788418
H       29.94796076       1.94963603      56.67697972
H        1.30466387       3.65555973     113.64403593
H        1.44787513       4.93764332     114.27049674
H       13.02558129      15.09184473      56.07532106
H       12.32839812      13.72129867      55.81203631
H        3.00123051      11.31902939      72.36305484
H        2.49792990      10.01427526      71.70771857
H        4.99269140      31.82512924      88.86245903
H        5.70406835      32.52123955      87.71223753
H       30.99287646       3.65558755      72.11123734
H       32.22715817       3.88695940      71.18003860
H       32.97973672      22.17076169     108.68544069
H       31.42194057      22.29792741     108.88804029
H       28.60113652      30.87952327      63.29530724
H       27.94481737      29.51105763      63.59279667
H       29.56573289      14.07222650      65.08848292
H       28.85773589      14.97936714      64.01105249
H        8.95530836       0.26889763      78.89616730
H        9.99806796       1.14399504      78.38911546
H        7.22538124      10.77188846     100.88288923
H        6.87318402      10.43154166      99.41006592
H        1.80073413      16.54295332      58.53363709
H        1.63687520      16.71183333      57.05229852
H       14.89977583      13.05953365      62.35187894
H       15.37489783      13.76229141      63.65694228
H       29.54869053      18.38751851      85.97336617
H       30.28984494      19.31232530      84.93767733
H       20.00290540      17.86088971      99.76736829
H       21.35052378      17.21007356      99.48662553
H       17.94362936      32.12407023      73.82070489
H       17.31653501      30.89207914      74.52966905
H       10.52424212      26.21434247      98.37370117
H       10.90454894      27.60137720      97.77631138
H       15.86836363      27.08066951      73.74685073
H       15.18129397      28.21872204      73.08313962
H        5.78028876      18.90074121      69.96164911
H        6.58182751      19.22063042      71.21648045
H        2.09696042      13.53178249      88.89863284
H        1.82048620      14.98448008      88.55920389
H       31.68658874      16.61361791      58.91436443
H       32.53138773      17.86711630      59.14331852
H        8.38865586      12.72622513      60.17336682
H        7.37285372      12.11861620      61.08071336
H        0.81657371       7.85618537      66.00188652
H        0.74664204       9.14357491      66.82505981
H       29.04780161       2.69823763     110.66874927
H       30.22109224       1.75486308     111.23167779
H       17.08433707      11.33180358      80.08298807
H       17.61371218      11.31075979      78.68009340
H       10.06890557       5.23272742      86.84364559
H       11.45898558       5.77357163      87.26193593
H        1.70177059       9.17541926     100.07087290
H        1.87567794       9.12737595      98.54852697
H       22.42335086      28.34901543      75.85113462
H       21.79986528      27.47120879      74.69732458
H       21.37713097      15.44559928      79.89442678
H       22.34724997      15.84733447      80.96951951
H        3.25357290      22.97999754     117.40618636
H        2.36597479      22.11175441     116.60457883
H       15.11098948      11.78698464     113.29581818
H       15.64343852      13.15036388     113.29633886
H       21.89625722      17.86853609     117.03479676
H       21.08301456      17.03532115     118.00014169
H       12.07042519      25.31970767      97.84093754
H       11.78348629      24.03457354      98.68643600
H       17.31939433      22.44352910      93.68964018
H       17.76480601      22.97854509      92.35706493
H        8.83747043      10.55459576      77.14325522
H       10.18597507      11.28618027      77.30609962
H       -0.05664727      17.73842766     108.57505255
H        1.38098851      17.73643291     107.95296108
H        9.24596487      20.68144893      78.90279472
H        9.48087782      21.50017044      77.62277505
H       30.26779571      19.88261383     105.96229789
H       29.13648785      19.17180781     106.79884348
H        6.70540733      16.20566766      95.35232110
H        8.14940257      16.24397584      95.63137165
H       19.13923207      15.91494194      77.49026333
H       18.03882486      14.86012192      77.53684376
H       26.80479650      11.87930188      81.72109044
H       26.42990797      11.34617066      83.11853681
H       13.50554314      32.99399551      60.44778807
H       13.99834682      31.63410400      61.18456546
H       12.44914105      22.39510738      99.78109366
H       13.88708333      22.85525583     100.18270443
H        2.41747716      27.52111346     114.20451491
H        2.86095111      26.78363767     112.92034056
H       17.36807308       7.93246635     103.98252852
H       16.09515050       8.69349722     103.39431605
H        0.55765014      31.82966287      76.06231823
H       -0.58983790      32.21040670      74.98437318
H       32.66097130      33.52930230     105.22589565
H       32.89281485      32.05547336     104.71582767
H        2.69221199      -0.37507803      77.04373138
H        3.76891349       0.12252725      76.08278736
H       29.33601415       6.20973290      77.24478279
H       30.74002132       6.59414227      76.66179560
H        1.73358894       9.31299447      59.91168983
H        0.45619963      10.11813336      60.10954088
H        5.98671026       7.24389645      84.19119807
H        5.60579036       8.12733422      85.34928455
H       11.81191758      31.25244423     112.94403648
H       10.63200046      32.07761864     112.44395061
H       24.07032658      27.51130634      61.63603543
H       23.04630833      26.96859141      62.65962384
H       32.26386930      26.24451268      93.37947124
H       32.75006145      24.82899651      93.02192379
H       16.74656496      20.50782236     107.73825880
H       17.88744466      20.16313159     106.79431953
H       16.63966850      22.85087480     104.63935940
H       15.85672344      23.59624028     103.58502360
H        6.53164682      23.18097702      73.35850361
H        5.78568296      23.88796793      74.47290015
H       15.25195755       5.29516304     100.64906785
H       16.71638772       4.89355874     100.51232941
H       25.85601406      21.37405771      96.39379139
H       27.28076543      20.91913312      96.75582071
H        3.18800837      26.40371030      71.99538902
H        1.71131621      26.68567408      72.16772057
H       27.60430355      25.11057820     117.41554358
H       26.83702826      24.03099488     118.20918196
H        1.89273710       1.42888668      59.44444804
H        2.16336393       2.65704128      58.44252917
H        8.14078147      24.63843409      83.45120573
H        8.22112239      25.34950579      82.11282326
H       30.89593725      18.68223113      92.09044203
H       31.86038111      19.87289000      91.83276944
H       13.78296565      10.04298685      86.52230830
H       15.24441327      10.48970247      86.78361810
H       24.43758762       8.72217312      90.61581554
H       24.65235114       9.58986452      91.84160111
H       17.63259126      14.37580189      57.00975331
H       17.95772389      15.91978955      56.89576059
H       32.61678562       2.43274476      72.58079920
H       33.32381023       3.46608792      71.80673570
H       23.68511275       6.05044525      65.72042488
H       23.15652477       7.08038017      64.74127808
H       19.49145567      13.21116215      72.91283608
H       18.37340931      14.27060135      73.06648582
H        2.30172527      14.10758518      68.51810913
H        1.28844799      13.18118789      67.80726250
H       11.59408965      22.93779390      74.54924401
H       11.52315787      23.96329562      75.79132345
H       17.63920448       8.57110496      60.17936634
H       17.41497965       9.83201489      61.13203711
H       32.40339508      15.12691288     114.17563210
H       32.58327237      14.68951279     112.73887921
H       20.58374819       8.23025595      71.20987047
H       20.19652669       7.08599079      72.13376196
H       19.74398046       9.14321286      83.60427946
H       20.63620013      10.05435560      84.46022257
H        9.89290855      -0.19627777      73.28309299
H       10.57993124       0.58580159      72.17717231
H       28.90519648       9.18849108      63.64867612
H       28.16773071      10.15518659      62.68889277
H        1.48898702       4.66727945      77.68743169
H        0.00876381       4.54076829      77.99722963
H       21.10675531      31.49704089     115.13673930
H       22.59025418      31.08711613     115.49591427
H       10.27724943      18.29795306      78.75240930
H       11.43700488      17.63622068      77.89516829
H       26.97531613       3.90536901      92.17036722
H       27.48200242       3.84485558      90.74958537
H       17.59510836      31.80122779      85.56524879
H       17.66974347      30.36417810      86.15183899
H       27.82268986      20.27273483     116.48605205
H       28.78607595      19.76445528     115.36567749
H       26.34372782      25.14241454      61.80176782
H       25.07001207      25.79199643      61.32099862
H       26.18743567      19.16578802     109.96720593
H       26.34320435      18.46288532     108.65396243
H       30.08436091      18.01646235     115.00076412
H       29.78862515      17.48680981     116.47594488
H       10.97429196       4.10779667      76.04692522
H       10.19251278       5.40734743      75.96741915
H       28.59198332       1.47843147     100.01455160
H       30.09557162       1.32624434     100.06874352
H        7.83397386      19.14699844     119.18985065
H        7.34049261      17.71826081     119.24157693
H        0.81302793       2.37865664      74.01552144
H        1.12143267       2.51489131      72.59189951
H       13.81472159      18.00651612      69.92391768
H       13.55869632      19.49084113      69.75993255
H       18.58580008      11.92789099     117.70248249
H       19.98314231      12.10233067     117.17073212
H       32.18571947      19.59935737      70.02541082
H       32.12400816      19.30471208      68.50301471
H       24.49220667      20.17702415      88.68941187
H       24.71782387      21.64677507      88.31783799
H       25.86253297      12.25313292      60.10354923
H       25.57421193      13.36040200      61.06733460
H        4.87690280       2.01723057      88.45852755
H        5.11514216       0.63385191      88.16398880
H        4.82249683      13.66820651     111.60553326
H        6.08997630      12.97118200     111.25319771
H       29.26452694       6.34613698      74.79732518
H       27.84168780       6.16629413      75.28444705
H       12.67015627       9.15464423      94.16603846
H       12.97865806       8.18095729      93.03760166
H       20.69007330      23.51298692      92.69677091
H       20.16570772      22.49737297      91.63629517
H       30.50379569      24.32463296     114.87509948
H       31.94013325      24.67055752     114.42049057
H        4.38642928      14.45389708      90.16323104
H        5.16840238      14.29727256      88.85675297
H       24.63875610      20.74570258      93.58002246
H       26.05616199      20.44881606      94.08546718
H       10.59103965      16.34824995      91.02524715
H        9.61138094      15.17369715      91.00922879
H        3.38551149      16.66977613      64.86075756
H        3.18370952      16.54960468      63.35526005
H       13.66890528      29.25912810      61.15232327
H       12.52350594      28.99702797      62.12231439
H       14.88081386      23.29431865      83.01856341
H       15.30257838      22.03532365      82.17517874
H       20.09327095      19.27188617      58.40234016
H       18.65639877      19.91992941      58.50192971
H       25.54851864       5.52447641     103.45145915
H       26.51223774       4.64450350     102.67293035
H       28.48508254      21.06558259      91.26620039
H       28.20790508      22.06217570      90.07868703
H       14.41601332      13.44420934      98.93636270
H       13.35199053      14.44135434      98.79956229
H       30.31636006      33.33245456      93.29172198
H       30.82853097      32.49689229      94.46427085
H       21.95519617      17.57937255     107.13062996
H       21.76693251      19.01854724     107.74316498
H        5.20103403      21.08916944     107.45126536
H        5.33149255      19.66848643     107.00205485
H        7.92826871      21.27070146     103.83420639
H        6.64796704      21.55891235     103.01624104
H       22.52686671      19.79909345      66.24936334
H       21.21340946      19.83491994      66.91137595
H       29.85700871      26.60959947     116.39781106
H       29.90741187      25.06149389     116.46913486
H       10.78701720      23.02059737      60.23939699
H       12.18873007      23.11316007      60.91587189
H       23.79047535       1.83581857      73.62564754
H       22.40963949       2.41453011      73.24759604
H       10.21177551      23.02792416      57.18301779
H       11.77905763      23.24801621      57.12101398
H       32.81583604      30.56126598      74.77178674
H       34.16214894      30.40365870      74.07590034
H        7.16671308       6.38996136     114.89915096
H        7.22545203       7.73944422     114.23678066
H        0.88549050      11.67988176      97.65315894
H        0.37337929      12.89525772      98.38613539
H        9.25096506       0.55524553     114.71504607
H       10.20451421      -0.03951471     115.77246522
H       25.65756490      24.20771837     108.91536752
H       26.34107600      25.43898459     109.23999518
H        5.02697730      19.17369216     103.21683306
H        4.67836396      18.01294846     102.30261551
H       31.13240104      24.37685422      97.96633323
H       32.09529715      25.51094824      97.60002064
H       29.63902639      10.39085164      61.52290906
H       31.10044429      10.83884753      61.26143259
H       17.47967606      16.03182886     112.42757753
H       17.27448422      16.69152611     111.00562335
H        8.95432851      10.14144851      88.40516644
H        7.89363113       9.46043939      89.34686421
H       30.60184174      23.81315777      69.17794630
H       29.37952836      22.89210513      69.07273187
H       -0.09452897      30.07167142     106.55283858
H        0.29992665      31.48298379     106.26891203
H       28.65574515       6.81293698     108.27584726
H       28.43870259       6.27512386     106.86821425
H        2.29255960       8.05710931      54.50298601
H        3.19113255       7.23831800      53.58398734
H       12.97464843      21.45836478      80.31161386
H       14.35966600      21.91016607      80.09358755
H        1.75722583      27.13493299      98.84015013
H        0.40071850      26.47154341      98.24238301
H       20.93674696       2.64932118     105.85982024
H       21.12718491       4.19169373     105.96013803
H       11.04563466       7.46489471      95.92068975
H       10.10576407       6.22904279      95.98846258
H       14.79546078      11.14032279     118.68213029
H       13.71318557      10.79260791     119.71473367
H        0.37974028      19.81650955      65.70509834
H        0.83555039      18.95202174      66.91301676
H       10.52306865      11.52876508      93.50674311
H       10.46527693      10.28521931      94.39027276
H       10.04191779       8.47381974      92.02350935
H       10.57070903       7.80993904      90.66058039
H       28.76090264      10.54791539      59.83616554
H       27.73924027       9.59422326      59.47399448
H       22.04878280      26.72847268     102.79863947
H       22.96496422      27.64123770     103.72504142
H       29.20754996       4.89273082      69.42504427
H       29.99196000       6.09771928      69.77496942
H       25.54540983      10.94694150      66.16649375
H       26.05253303      11.78373814      64.95554406
H       27.99640009      24.35907430      92.55513779
H       29.06480132      23.23653100      92.61489756
H       17.73505045       7.65064680     101.12901570
H       18.25301925       9.07588987     101.48481624
H        4.39787424      29.76908119      77.26317312
H        4.38145638      28.21474468      76.99873545
H        8.60487557      29.60519910      65.69690096
H        9.52471766      30.79187137      65.60387884
H        8.43160449      31.33805976      94.43952962
H        8.07540762      30.00331281      93.74425888
H       20.90581077      29.89756777      94.62312250
H       20.23627312      30.93657538      95.46903066
H        8.97588900      28.04133450     112.98351172
H        7.75586531      27.12666873     112.83579596
H       28.12833474      14.14233968      85.44987358
H       28.28167747      12.91319343      86.46442529
H        1.39047222      32.71034878      99.23942073
H        1.71306560      32.29513475      97.81164962
H       22.88549026      30.39429832      77.64271057
H       22.13927586      31.61428782      78.05207379
H       29.72370087      24.37830176      99.90662726
H       29.65979741      25.83812519      99.53265417
H        0.44734860      10.67619619     118.02410762
H       -0.08019793      11.46633250     116.84097460
H       22.70386899      19.68621613      89.93504922
H       21.56646339      18.59344435      90.06005981
H       26.81189821      21.24507160      77.14122913
H       26.13275471      22.49949221      77.85722376
H       20.07177982       4.46410504      81.04396032
H       19.93709622       3.11704578      81.75136695
H       11.79759500       3.81095904      62.67220992
H       10.79392319       4.53603661      61.84955723
H        8.09546241       1.27098813      86.03951900
H        8.46383048       2.26377722      87.17549395
H        1.13846898      19.93797641      76.56454609
H        1.70480873      19.82726600      75.15152963
H        6.32089899      16.59346251     106.00916238
H        6.89632067      15.44217558     106.94041145
H       16.96890023      12.69508884     110.99418693
H       17.31493771      13.02261877     112.44229807
H       31.11764866      27.58405861      61.10177451
H       31.04967466      29.02832370      61.54719583
H        3.72570673      26.11069741      83.98243942
H        3.28323243      24.80480109      84.75304435
H       20.79482892       0.54341832      88.20457799
H       19.81340230       1.70276081      88.02828671
H       32.43832398      21.35828750     102.32692049
H       31.02025617      21.75257583     101.78892268
H       11.61205334      25.06222644      57.27009387
H       11.28861726      25.43027798      55.83296775
H       19.95892794      27.70754132      69.88625517
H       18.59775386      28.27368803      69.35610825
H        1.62364960      -0.19332245     112.33273909
H        3.10507194      -0.09248668     112.57030705
H       23.60759710      17.82985180      54.50588285
H       23.97572665      19.36700689      54.44627117
H       21.85153053      11.16369611      60.55681340
H       21.80107333      12.58510533      61.18363125
H       31.02499253      28.86530641      99.36692084
H       30.14973031      29.95516188     100.10274059
H        8.46643344      30.39510216      83.26973805
H        7.29038968      31.12294367      83.59705339
H        7.03916528      22.18233673      98.16096378
H        7.96105636      21.03089705      98.70334930
H       21.90376446      18.32499345     101.84889557
H       21.80120961      19.11139008     100.55027587
H       24.62133619      26.29569897      74.15423870
H       25.67055474      25.56815348      73.42873473
H       15.01446508       2.28160152     115.65426816
H       13.96624540       1.14602981     115.36779005
H       16.56730028       9.39398599     110.24399710
H       17.27749541      10.31737697     109.32549781
H        4.89168609      22.98738632      72.10764409
H        6.26199601      22.52738733      71.56979699
H        0.09185067      29.61663055      58.84144494
H       -0.15141282      29.13720122      57.43528686
H       19.28476447      21.86953094      59.22053933
H       18.35282891      22.53163769      60.18147099
H        0.81827175      14.16913829      62.99876850
H       -0.51371904      13.48808306      62.66401094
H        8.72863787       7.96763648     100.32797150
H        9.16461084       9.37506183     100.67574708
H        7.62034416       9.61889307      57.25753418
H        8.17023382      10.97865705      57.86383887
H        2.45230007      27.22141047      61.72079553
H        1.82455956      25.83003275      61.73397806
H        5.37231042      10.54246216     112.54183736
H        4.75453728       9.58704867     113.51107377
H        8.91503660      30.11552643      99.95231877
H        9.81124862      31.10246650      99.19095500
H        7.92941266      18.40606730      76.85879048
H        8.79090415      18.46159003      75.64578295
H       17.55763599       9.17363564      69.80511031
H       16.03303644       9.11304228      69.72588868
H       16.95784056       5.96907894      93.06516341
H       17.93659704       7.06562987      93.38008832
H       25.10496152      28.10258246     116.57448948
H       23.88843202      27.22997118     116.51412570
H        4.05056002      19.24407691      53.97555964
H        3.72852509      18.24553037      54.97561551
H       19.71576598       6.47088191     100.84105434
H       19.66869469       4.93308612     101.05291211
H        8.03587161      33.80636138      91.29832852
H        7.81322209      32.37909400      91.89436716
H       15.22523332       3.93744400      69.02704456
H       16.06298136       2.80889213      68.52965859
H        9.41946895      22.80012451     105.86663931
H        8.89886300      21.51379858     105.34285450
H       22.53167544       9.04786632      55.58650719
H       23.43053679       8.15758481      56.51402845
H        7.92776153      25.33183406      64.27631451
H        9.18179040      24.50388847      64.02701449
H       26.30029427      22.22316354      87.94066569
H       26.00495586      22.95135831      89.30278974
H       29.21026124       9.19326070      86.77235791
H       30.32661259       8.39074554      86.05587234
H       26.03150397      13.76586176      96.62139463
H       25.62296341      15.12227344      97.21064726
H        1.83151329      21.32442332     106.43702854
H        1.61617990      20.48149361     105.16580549
H       16.09841788      10.73342169      92.25284097
H       16.89900651      11.91335636      92.82302927
H       12.43891579      31.52415776      68.12649218
H       11.89401812      30.62353510      69.24018163
H       15.66126497       3.07350426      87.82100572
H       15.83175393       1.74784781      87.11159668
H       23.45992031      10.25519862      91.54776249
H       23.40360577      10.72094688      93.09572347
H       25.01277845      16.66523807      97.55782896
H       26.14600378      17.75562777      97.63440831
H       14.97786088       4.85916071     103.78394931
H       15.83244133       6.16477075     103.91107170
H       22.68851760      14.31600160      64.36138159
H       21.89517964      15.72623043      64.38536031
H       19.55487164       8.20298862      97.99015494
H       18.58045672       8.23212341      99.11155185
H        7.48567555      10.46490492      90.41340268
H        7.15751531      10.74729923      88.95248753
H        2.02055994      12.78327330      87.25514832
H        3.33252459      12.03041092      87.49756435
H       24.67708357      17.25365060     109.95608075
H       24.41290664      17.62484792     111.37649911
H       22.18294874      24.49938923     110.43141007
H       21.92200338      23.52049309     109.24185435
H        9.89282231       7.30276653      72.37752728
H       10.59332741       8.55143073      71.71923536
H       28.72668902      14.97082602      88.05986216
H       28.38386320      14.59204303      89.55462958
H        1.08787701      13.35666917     107.61797472
H        0.69210203      12.96864057     109.02684225
H       18.76041705      30.11060802      95.67217732
H       17.19787604      30.20421914      95.88713646
H       22.62802118      22.59870928      59.17289752
H       21.64846808      23.58281612      58.40744459
H       18.72361255      15.33889217      93.71362635
H       18.66045606      13.88440970      93.49852272
H       31.46331686      30.42337060      62.42102940
H       30.99020139      28.97585366      62.94829999
H        7.92625734      27.90834867      54.86945312
H        9.18216554      28.80484822      54.70750958
H       32.06109894      27.34514215     100.78019994
H       32.72011888      28.63588436     100.52272165
H        1.86782910      32.49995496      80.11000726
H        0.47031358      32.13063307      79.53619739
H        4.98517478       5.72204435      82.48493891
H        4.88088100       5.09407158      81.10878507
H        5.13549781      20.20672161      91.67483992
H        4.90693817      18.91086495      91.34555418
H        8.91156812       7.58923766      81.07174278
H        9.01846336       6.55046158      82.12194612
H       15.36471109      13.96496468     107.19138134
H       15.41261555      15.18377538     108.04917992
H        2.29375755      16.81313372      83.48917283
H        3.35823894      16.38765997      82.53502333
H       32.52929591      10.79847409      83.62212763
H       33.72952624      10.07763904      82.98657288
H       10.15282897       6.09724036      58.36473020
H        9.34169967       5.01371511      59.10710849
H        4.84806720      26.01678265     109.21283298
H        4.99543865      27.57443411     109.26729068
H       26.53182393       3.48287198     104.88937080
H       26.36337124       2.91182362     106.33033718
H       24.42923692      19.00304250      65.62055926
H       23.52137898      18.28836307      64.56573809
H       21.38277349      22.29123091      67.16067421
H       21.53071451      22.47302361      65.67570143
H       22.60526616      14.78084257     107.21485103
H       23.79728362      14.68034121     108.21241606
H        1.13365324       5.22943688     107.78039725
H        2.57379358       4.82965261     108.14068943
H       12.08073451      16.21122127      99.56701300
H       12.46181396      16.29242825     101.02536574
H       32.90995333       3.18471423      86.77058152
H       33.38866601       4.37295534      85.93596185
H       15.45168765      21.82145083     113.02427151
H       14.75898331      20.47680279     113.01430102
H        3.43095902      21.47915550      78.84214406
H        4.28883892      20.44208549      78.11055793
H       15.40078443      26.11368178      94.43885915
H       16.05278860      27.49039602      94.22076414
H       22.50058176      11.17439793     117.91103541
H       22.98188674       9.77779159     118.40911305
H       33.90219188      13.68666109      54.39652727
H       32.65974024      13.03439133      54.98561199
H       19.27885831      25.76870133      71.21264733
H       18.92614440      25.49011241      69.72300437
H        4.70468634       7.57371829     110.64186663
H        4.12205108       6.15110901     111.04569885
H       32.90573340       8.05038675     120.11140362
H       31.54425637       8.72913307     119.84508686
H       28.19728961      19.48685133      80.51979801
H       29.12022061      20.66836425      80.91311076
H       22.14508791      18.52890563      62.90443166
H       21.71615892      19.98309019      62.63922294
H       23.10074363      20.90017128      68.48592233
H       23.15288890      22.06600456      69.45884136
H        6.88272087      12.98331928      83.37200201
H        8.26092099      12.49326158      83.81393636
H       33.49101985      11.92652803      56.21602902
H       31.96354611      11.70236009      55.95604625
H       30.56383629      19.09658169     120.50949629
H       30.10977569      20.33301110     119.58077824
H       28.31177405       2.75551457     112.67364906
H       27.66148520       1.68955874     111.84583368
H       18.82740472      26.59904915      82.62734977
H       17.82200865      26.94731532      83.77236421
H       32.63291622      30.34216751     111.96464977
H       33.45738914      31.11122012     110.81598974
H       25.87805820       6.88704402      77.41843893
H       24.88758691       7.62511513      78.34431791
H       16.24945349      12.59029086      75.42076499
H       16.13625860      11.44539761      76.39602122
H        1.43850535      19.02510970     111.80068756
H        2.42626977      19.47706139     110.70158873
H       24.07320062      16.27754445     120.39143868
H       23.72201095      15.33729572     119.28080215
H       20.45259101       5.05911769     103.75879742
H       21.04983335       6.33426223     103.16063764
H       19.01372710      18.72092051      55.50680654
H       18.57204930      18.88857117      57.01981461
H       23.30274080       7.38657558      77.09106204
H       23.21350692       8.59065213      76.09409128
H       31.39248997      26.04587318     118.71144749
H       29.94633707      26.58794015     118.56336662
H        3.69456964      25.91057293      99.20002514
H        4.63892945      27.07194555      99.33710076
H       17.70976363      17.73439974      55.95957010
H       17.62764222      18.41609975      54.57207478
H        6.17605644      12.28635265     102.31638310
H        4.75130536      12.53187249     101.75687307
H       18.52153671      12.66915873     109.08855274
H       18.92081322      14.05108939     109.55097709
H       19.81196279      31.13331503      57.57262738
H       21.09950492      31.66762203      56.84221340
H        5.44924621       1.30306566     117.42960297
H        6.62813072       0.48039578     117.96708789
H       27.72697018      23.21874147      95.45324475
H       26.81969137      24.35541659      94.94957150
H       11.12141449      28.52249246      86.32386116
H       10.22506028      29.33831966      87.22425534
H       19.28693570      29.19006850     111.64859906
H       20.35997601      29.91203817     110.83383403
H       30.90140000      21.68496741      84.55302308
H       29.59806877      22.25059956      85.10431945
H        6.24261257       8.78474036      73.75729602
H        6.51200904      10.29049926      74.13889023
H       23.85805776      23.20262218     106.47728815
H       22.86462267      22.49480277     105.50742609
H       12.23746977      15.29889834     118.33667505
H       12.25490653      16.25461270     119.47417902
H       11.83863824       6.51295687      70.00615830
H       13.16794365       6.32715066      69.33931473
H        5.91815614      17.50796948      97.95396467
H        4.72627303      17.65842703      98.97502931
H       26.28975930       7.86265745      64.76067030
H       25.09372992       8.61511956      64.29533827
H       28.01571728      11.54716150      54.35915986
H       28.85146946      11.29212428      55.61252645
H        8.15080518      12.86353305      58.67185375
H        8.76754122      13.50791605      57.40167443
H        8.71398849      18.45713526     118.15166443
H        8.77036169      19.47968739     117.02852704
H       12.24867800      18.38065252      74.43916541
H       13.45083495      17.88550600      73.57715235
H       26.93302609       0.75788954      68.40280446
H       27.24328467       0.46524974      69.83008132
H       29.90976561       2.20352732     109.69573003
H       30.11624307       2.14950226     108.21054977
H       16.16969642       4.06956466      71.24876157
H       17.15153615       4.97643041      70.47382809
H       23.46531547      26.98448417      59.11041120
H       22.40254749      26.10526824      59.67893869
H       22.27917206      24.49396323      81.30721218
H       22.21641276      24.51847591      82.86342259
H       18.11930202       5.60611721     113.46318821
H       18.01526704       4.34863826     114.34452778
H        4.04776058      27.60815567      90.42423375
H        4.81739790      28.50934662      91.36686532
H        6.31156973      32.69961632      57.35310335
H        6.68759399      31.60193515      56.42034767
H        0.42858112      25.35803463      66.09943781
H        0.81559652      24.08149452      66.90097797
H        9.38284810      20.35272540     100.71123233
H        9.56434236      21.79602334     101.05330640
H       14.45474676      12.69583685      68.18271696
H       14.04581963      13.02360601      66.85106955
H       13.52169156       8.21715451      81.34070721
H       12.87236864       8.04739817      82.69135487
H        7.08127141      17.25786289      65.72206027
H        7.10740524      17.64587691      67.24858774
H        8.16509880      16.06470747      66.72263471
H        8.60912059      14.85188251      65.89977223
H       20.67918035      16.38736227     104.48287876
H       20.24131355      14.99945318     104.94179950
H       10.07132594      19.62822460     107.11982412
H        9.09410278      18.51671760     107.41364167
H        0.34519027      29.49932879      82.90508999
H        1.24689064      28.67833116      81.94328957
H        5.62578907      23.62506757      63.86913867
H        4.92147118      24.24832754      65.07688355
H       17.64584931       1.94657505      98.97037917
H       18.93548660       2.81011776      98.99852028
H       19.19035910      23.39709853      63.83205509
H       19.25025943      23.73700855      62.32259803
H        5.34636661       1.05269853      81.57535417
H        3.87249487       0.85040644      81.70562871
H       17.43785525      25.85963554     119.74832240
H       17.32971822      25.17640732     118.40838171
H        8.69710350      33.09532476      83.79635656
H        7.56341238      33.44123224      84.69207594
H        4.58624862      15.72416019      81.04420225
H        4.91511787      17.11739409      81.64149278
H       32.87644730       7.43795187     104.44275159
H       33.64220836       6.84521094     103.30752630
H       30.22536019      30.24459005      68.06331509
H       29.53518007      31.60328003      67.76546981
H       27.47781804       2.56765680     103.64114071
H       26.96368338       1.84951943     102.41353406
H       11.94560216      16.91695837      58.68853825
H       12.86965684      16.54416407      57.53125243
H       14.62329269      13.53519870      90.79199302
H       15.88234809      14.16744364      91.30303667
H       31.39211909      25.10277492      69.02371558
H       32.67866940      24.86781445      69.92098076
H       25.68402614       1.36345854     116.08055234
H       26.40552972       0.39101748     115.13000781
H       32.85995455      25.67197034      67.08418302
H       32.03006267      26.68270570      66.42200040
H        6.99159058       5.64746528      69.27673652
H        8.28244177       5.85103944      69.97398358
H       11.78873878      17.44860966      67.21899049
H       10.52414560      17.97342765      67.80479301
H       17.15289775      23.12249129      88.96616857
H       16.69907956      23.18999169      87.50399550
H       18.95163789      -0.38139730      81.06165527
H       19.53331620       1.06852173      81.29755750
H       14.13766124      30.34290207      87.08008583
H       14.50513502      28.80346524      87.52581969
H       30.50473597      24.51023015      95.39836184
H       30.31578046      25.99184493      95.63791320
H       24.05235327      15.23361751      70.50983428
H       24.14872171      13.96497855      71.42144807
H       19.50382175      15.29967048     117.33192115
H       19.15304247      15.25015442     118.84970104
H       15.45554109      25.79972414      66.43490322
H       15.86263102      25.12994308      67.76498824
H       10.01883817       1.81365028      66.44195489
H       11.55556044       2.24269607      66.45008725
H       20.18837628       9.76618734      98.81347136
H       18.88668451      10.71613818      98.99159490
H       28.07033878      17.82685288      91.00464226
H       27.83986574      16.46498139      90.38513075
H        7.74890929       6.82432095      74.94588918
H        7.95060139       5.66197207      73.97865239
H       13.77316518      19.61512118     102.84092668
H       14.86460545      20.53479521     103.40932717
H       19.73585563      29.39494058      92.53497072
H       19.25193891      28.05102985      93.03259679
H        5.07981021      14.30229482      86.71988323
H        3.59967785      14.15510004      86.40122293
H       23.62291229       3.95513720     115.04391620
H       24.00174026       2.92400087     113.93646951
H       19.21437493      24.69915786      96.62302715
H       20.29453221      25.55612951      97.23533884
H        4.04685304       5.00442254      77.97299312
H        4.64581351       5.14105113      76.50461498
H       23.00414216      17.00411158      78.02209993
H       24.45687279      17.35197262      78.34211027
H       21.33101755      21.34380539      91.90191110
H       21.29307632      19.84544137      91.52607943
H       31.77826614      29.29354740      80.34460607
H       31.71114241      29.73655113      81.76433213
H       31.00292198      14.41124140     102.77115355
H       30.77155790      15.43642723     101.63303878
H       25.47820177       9.89799010      88.77503943
H       26.01722554      11.07480524      87.93303124
H       32.14147633      -0.33296411      85.05780769
H       32.41031239       0.80486756      86.08445730
H       23.05156076      31.21441296      54.68686868
H       24.54240370      31.51767330      54.79859403
H       25.38346982      32.53959722      59.59750342
H       25.60983743      31.73824959      58.48382608
H        8.30503993       6.54502272      63.45206301
H        7.36980354       5.73011234      64.36998111
H       11.25450448       9.28226895      64.90022770
H       12.65753802       9.21217254      64.26648909
H       28.94011467      13.43842213      91.26467303
H       27.73125124      12.60574577      91.70136843
H        1.88739780      13.78326320      74.04807456
H        2.63165611      12.70285230      74.86528198
H       17.51659117      18.58064919      91.51311852
H       16.30384932      18.02308226      92.22751721
H       24.28007807       2.12314278      81.57491347
H       24.89701406       1.01364531      80.75346847
H       11.39852401      32.05378395      81.48994957
H       11.08795415      30.92690556      80.48767953
H        6.09340490      10.35592655      64.69553493
H        6.65937432      11.64716676      65.35387706
H       -0.26463589       1.23627717     108.02332878
H        0.97020034       0.43949738     107.51775974
H       29.96106221      21.18759290     112.36084154
H       31.20175322      21.64348633     111.51418703
H       14.84416517      19.90325326      75.77739427
H       13.47253052      20.41764550      76.22803742
H       17.88523332       8.52949349      56.36936527
H       18.09689733       8.55722885      54.87249312
H        9.69552328       5.55599589     112.32872227
H       10.75600561       5.63764065     113.47286944
H       31.31980575       7.75170538      56.29402394
H       31.75070266       9.00804876      55.64964228
H       18.40656473      30.04906228      77.08049082
H       19.67575887      29.28897255      76.65738460
H       19.74595909      22.40553259     106.23918187
H       19.47579153      21.71898561     107.56161436
H       33.87532879      30.77405431      87.04566366
H       33.04992234      30.58967669      85.69260343
H       22.17328967      27.64058858      90.85810679
H       22.53974321      28.77163043      91.90014738
H       14.25657307       1.71014558     111.79285018
H       12.79086959       1.28208931     112.03801289
H        0.79683490      12.78316135      81.22139415
H        0.31297643      12.20720700      79.84130660
H       18.67293203       7.64060379     118.90837580
H       18.22114105       9.08190218     118.56283733
H        8.50002446      21.83329468      85.99641671
H        8.89918927      23.21276073      85.50902480
H       21.13330564      15.06874541      84.21313401
H       21.28431073      13.57097465      84.00427265
H        6.64704411      28.34820741     100.07672145
H        6.30599943      28.68396796     101.56204316
H       22.80849267      19.83288435     116.05748691
H       22.94509305      18.34019685     116.41085810
H        5.49235314       2.49338668      77.98336633
H        6.22899393       2.34099238      76.60587605
H       25.50064620       8.13649666     107.35217905
H       25.69983572       6.86748154     106.51805647
H       11.54064653      23.45190199      92.66115285
H       12.96132381      23.43034504      92.10500252
H       20.20859143       0.16504689      95.15870367
H       21.57678737       0.46314029      94.61078707
H       24.84371690      26.43817831      79.32472965
H       23.64782902      27.38568642      79.70233461
H       12.24354629      21.00629235      53.73981831
H       11.26434230      20.88874127      54.90434257
H        1.40428976      19.49012365      60.11875132
H        0.74275420      18.10889924      60.06064432
H        3.98825099      11.39562172      73.87516017
H        5.07317898      10.36830045      73.90939141
H       21.94942391      31.17968559     103.35679127
H       20.73176149      30.59825274     102.60864528
H       21.42545950       3.59112608      60.54327949
H       20.26974527       2.88703291      59.82448216
H        1.58846782       9.59103084     114.14687352
H        2.61991014       9.80430893     115.34552480
H        1.40818104      26.35869653      58.31721432
H        1.40301875      24.93249405      58.86750191
H        2.51170394       9.92723165      64.08782560
H        1.17190815       9.65483786      63.67536590
H        2.89570513       7.43068369     109.08480005
H        2.62858546       8.32099529     107.86887441
H       28.00888368       4.81019415      93.00097786
H       28.32786860       4.87159429      94.44242632
H       21.70521510      12.30289253      95.75699101
H       22.41292204      12.97035098      96.98697077
H       24.26592558       6.81798159     102.02786741
H       24.12286293       6.87440362     103.59638106
H       19.45391329      12.45147364      91.38691914
H       20.68668782      12.52994839      92.30657262
H       30.65517730       6.45072873      86.11048127
H       31.64892925       5.67063356      85.27890209
H       30.36412427      31.58501213      74.90034056
H       29.40590808      30.54378523      74.31856947
H       20.93259883       7.33076977     107.03189758
H       21.48431307       8.06266765     108.25511728
H       25.69548487       9.60617069     100.92280324
H       25.77555642      11.03385148     100.46361927
H       30.34680208      29.11193486     115.24967782
H       29.28330961      28.88392474     114.12053203
H       27.19255461      17.30192188      83.32174048
H       26.28063458      16.45345798      84.14155340
H       23.33272745      24.56773773      74.67759936
H       23.18829830      26.00871314      75.34786520
H       32.38699929      12.53706884     107.35528358
H       31.87601810      13.87375289     107.77854179
H        0.00494666      14.78774116      99.13297209
H        0.03595484      15.37887317      97.67613168
H       29.35992032       6.74028909      79.76081329
H       29.81127466       8.21968524      79.63516263
H       19.79304231       1.40233294     107.02890335
H       20.42750088       0.20002455     106.31615581
H       11.14451869       9.85406531     100.70871365
H       11.99014109       8.76886371     101.32781539
H       16.27493661      33.16758307      74.34988168
H       15.01610480      33.08655610      73.53023493
H       27.65151034       3.70607307     116.52127622
H       26.25563811       3.58617765     117.09954647
H       31.12948317      16.75973185      70.73349531
H       31.77644660      16.05192938      71.94216137
H       24.49907519       2.17024011      97.35961899
H       25.09109774       1.83056697      98.69833810
H        2.64134714      16.82163950      96.11915946
H        2.81667073      18.13481654      95.33132099
H       27.06693062      18.64480759      83.76723117
H       26.51343672      18.90146835      85.16223777
H       22.76960628      30.13040305     117.24623382
H       21.51380982      30.80831491     117.70722114
H        8.44011070       1.32617004      96.79329781
H        6.89733173       1.62029188      96.73146694
H       11.59399735      12.74454058      80.35891863
H       12.45772836      13.62572358      81.25840615
H       18.52405034      32.49103629      86.18071168
H       17.76445454      33.79280987      86.37686913
H       -0.14936184       8.76165937     104.12162346
H        0.95860073       9.31908326     104.95975410
H       21.03755380      18.44653787      95.91058871
H       21.89864835      19.23688999      95.03011532
H        1.31394070      23.28919845      94.89517453
H        0.96145162      22.92984048      93.43668595
H       27.58487609      19.22443947     110.47344855
H       27.15375437      18.35565152     111.68839599
H       32.52512225      16.93619012      63.13985106
H       32.74527366      17.96914610      61.99735173
H        5.23419009       8.20886659     107.36851856
H        6.58266342       8.65304238     106.86180999
H       32.90693977       1.66780552     116.96447070
H       33.29516544       0.53285282     117.92482267
H       12.15809762      20.51234919      95.90062442
H       12.94805933      20.49663861      94.53418153
H       26.28109505      17.07266580      63.65203950
H       26.09542454      15.72802728      64.26105314
H       12.67919585       8.53187525      71.53658893
H       13.23786566       9.80090580      70.89529330
H        8.60536210      15.47614520     111.39257756
H        8.44965524      15.74790806     112.93594431
H       24.73593763      14.63857694      60.07314195
H       23.31400857      14.51022486      60.68017889
H       24.59020468      22.41100608      71.13744022
H       24.37669302      21.17869984      72.02334564
H       17.57633908      32.13615905      58.82301008
H       16.15798916      31.90075580      58.35724419
H       19.98160512      15.47147990      89.93862402
H       20.03272883      16.72969027      88.94932414
H        3.09141725      18.12307820      99.95735930
H        1.85676572      18.57717035      99.14710941
H       26.64960129      15.15808885      56.10565244
H       25.90843903      16.07996388      57.08197556
H       13.96536617       9.12476715     100.44821769
H       13.60782530      10.17022980     101.51979829
H       16.40478184      24.56784641      56.80020230
H       15.76784137      23.12279186      57.06381270
H        3.28352253       4.58494916      64.07031983
H        3.87831599       3.16763692      64.05075065
H        6.90229867      25.67644420     110.57863697
H        7.56994171      24.48809619     109.97791104
H       33.26425366      32.09926827      69.97454330
H       33.96793538      33.33271084      70.54959915
H       21.42234132       8.16798625      57.99963438
H       21.39368999       7.57314977      59.44247203
H       13.15268490       1.74648715      73.04131345
H       12.24895636       1.46726709      74.18644231
H       10.40847306      19.20628816      73.08542545
H        9.66809546      19.13309235      71.67062273
H       10.92364363      32.38416930      99.23900633
H       11.76547497      31.18411235      99.79742859
H        5.83795308      18.83234779      83.35021064
H        5.92265200      19.95874366      84.35512134
H       15.37195323      10.29911025     110.98948022
H       16.36021120       9.41365528     111.81940089
H        0.85050836      14.20461084      92.19283647
H        0.29634183      15.71024422      92.17797820
H       19.20196667       6.84344518     120.48802568
H       20.14223642       7.54638135     119.42851432
H       18.22842015      29.21330562      79.66566692
H       19.22950109      29.95835479      78.81967936
H       28.38101203      31.25322510      69.71549283
H       26.96755378      31.04002794      69.48106387
H        6.16346504      19.19236206      89.87940266
H        4.82858698      19.44114089      89.05427328
H       33.15879549      29.46025409      68.47108540
H       32.18968200      28.39493650      68.02160684
H       22.20914484      13.63487247      75.94114454
H       21.05333661      13.39108812      76.93216463
H       16.89222900      32.77841286      83.40338242
H       18.22123583      33.09789352      82.67199701
H       14.46570415      14.32629464      96.74799269
H       14.32368540      12.98094346      95.99860078
H       22.19235070      13.26589084      63.56673877
H       23.42059063      13.83246355      62.70468598
H       20.95702926      13.94167557      58.33988649
H       21.92074783      13.02635256      59.15270650
H       16.89377878       2.35871080     105.60953008
H       18.18066847       1.98357721     104.96789263
H       28.63973014      24.22662911      63.63799297
H       27.37824213      23.76421410      62.92257174
H        6.98384662      30.19906060     104.80864985
H        5.80647233      29.79757691     105.61368063
H       28.71024073      31.50589951     108.40718348
H       27.36801427      31.04071157     107.88730647
H       33.15384879      20.80567274     115.43735629
H       31.87004558      20.13914493     115.01562281
H       14.83169997       1.59552504     105.00825819
H       14.49323183       1.54477172     106.56407862
H       30.99809088      16.11717034      85.11725630
H       30.53598962      17.49398018      85.60305153
H        6.11068102      25.97727850     112.98581680
H        5.21193367      26.13216953     114.26274158
H       32.51709367      22.49134036      80.88186922
H       33.51610666      21.32104710      80.74473356
H       11.60959076      18.45032096      65.08969272
H       11.36858888      16.96312879      65.05295478
H       12.18955129       1.94723993     104.00455580
H       11.23552473       2.04042622     102.84479271
H       25.97612864      31.19655430      96.43214695
H       24.89447428      30.91414645      95.44031063
H        3.88839352      27.91765876      63.43664991
H        4.26749193      26.69235138      64.29392265
H       30.44434406      19.06255627      63.12296632
H       30.57250016      19.42317685      64.57227611
H       10.08102126      22.68283140      75.07700258
H       10.47458040      21.55399926      74.11305517
H       21.65313311      30.55633809      57.28514481
H       22.10975077      29.54535968      58.18855288
H        2.96928180      13.37584466      99.55517306
H        3.72967203      12.77962964      98.39069601
H       31.02080168      32.07591814      67.07963093
H       31.86663438      33.20561918      67.42656270
H       29.35951985      28.96955227     102.99664590
H       29.39693109      28.06331546     104.16008144
H        4.92073717       8.87059580      72.57650561
H        3.41695102       8.96734722      72.76685773
H        7.57678937      18.73460140      57.16682150
H        8.58449451      18.39467288      56.08618929
H        9.40209305      25.37536365      91.19899546
H        9.09853753      26.83257695      90.96433597
H       33.16231324      12.30160729      63.84881678
H       31.82429808      11.71716928      64.23537120
H       15.20521906      21.07605900     109.29084846
H       14.11884054      22.05672303     108.93127305
H        2.58461395      11.71070644     104.94383826
H        3.10647256      10.23776120     105.20355275
H        9.46643083      29.84419177      91.27989265
H       10.61458328      30.74636578      91.65023610
H       14.14837290       2.99601386     119.28587589
H       13.48035967       1.55692065     119.52523602
H       26.97052267       7.64937936      78.86505605
H       26.95911084       9.08893393      79.43496533
H        1.76233059       2.63115495     100.30208600
H        1.62540532       2.84512221     101.83143265
H        5.21678735       7.62096398      69.19662208
H        4.75024382       6.12054846      69.47232046
H       23.29416561      31.91726092      59.48520176
H       22.33962912      31.11681559      59.92720674
H       12.00539913      24.60854955     104.57436847
H       13.00355697      25.00479974     105.67037888
H        0.17592173       7.44771500      87.13910425
H        0.37364711       6.33763916      86.07401580
H       30.53743996      32.52323824      64.31418740
H       31.13989410      33.87976156      64.61649402
H       11.88845189      25.14270548     111.60941941
H       11.93747883      24.67014821     113.07167741
H        4.24435935      27.79827073      71.96635261
H        3.60259946      29.14728294      72.34435216
H       14.10080211       5.31567409      56.77724150
H       12.64186943       5.61715344      56.23806757
H       26.26397473      33.38307122      85.92005612
H       26.15689624      31.84198001      85.96896026
H       13.04963936       8.18269651      55.61935599
H       14.49332982       8.04808669      55.13647169
H       15.63339189       8.12182645     106.81757671
H       14.43512758       9.08059167     106.68523305
H        9.80771160       6.75872965      56.63341112
H       10.72545119       5.80994433      55.84187749
H        7.09944233       0.39462243     107.44166336
H        6.70249934       1.29538145     108.61919377
H       22.01663472       4.55435224     111.14539975
H       23.18998119       4.35070121     110.20231359
H       30.61102615      32.05892543      91.15992882
H       29.54921217      31.67005316      90.17314860
H       31.86250027      12.32871604     114.31400653
H       31.82472825      13.20231482     115.53584536
H        5.40838725      15.15105209      70.94136038
H        4.51325428      15.82528805      69.90549709
H       24.46323443       2.90816406     111.63177054
H       25.06932179       4.19721302     112.39136874
H       15.18249349      21.38817010      95.87708811
H       16.34469953      22.30327636      95.84342740
H        8.10650120      23.11884285     100.38590809
H        8.64544749      24.20807086     101.27759991
H       20.32167146       2.91196858      94.23990003
H       20.15605046       3.02633570      92.71472385
H        2.87647696      34.21775374      67.20452523
H        3.73251226      33.00704769      67.72680616
H       26.56149052      26.65323202     117.59383856
H       27.65703663      27.30955637     116.84284376
H       14.07078565      12.02854483      71.74473491
H       13.33179582      12.72755500      72.96671412
H        8.88214820      26.47216941      70.38478060
H        7.54312300      27.29922863      70.21439314
H        8.31929554      30.45710531     116.03100811
H        8.20267907      32.06217857     116.11695399
H       17.68565506      29.97755503      67.46456609
H       18.05961867      30.09589378      66.01779624
H       16.44231002      18.08900367      87.61476327
H       17.08543453      17.52430726      86.33438988
H       28.91020414      12.53187243      80.27806861
H       28.01300056      11.45577027      80.91475287
H       22.13398668       5.57639022      67.07337198
H       21.19988696       4.86022591      68.05523305
H        8.91028196      26.85893533      67.62231185
H        8.85357999      27.69613489      66.33821200
H       26.79584549       2.96917013      71.44613376
H       27.25212497       4.27630412      72.05692149
H       32.71454740      10.67947418     101.56945760
H       31.31884571      11.05719318     101.03337177
H       28.87102840      12.69923299      68.86714032
H       29.67726926      13.92178959      68.76119855
H       14.58495022      19.95821320      97.87321899
H       14.53786932      20.59121272      96.64540114
H        2.18909154       6.65418223      57.34278107
H        2.61801406       8.18137380      57.25791030
H       27.94871897      26.89860608      92.22038414
H       29.30027674      26.45018575      92.57707175
H        7.55423219      16.83305155      57.97372220
H        6.19893086      16.23441975      58.06572945
H       22.69697659      20.26151228     102.20069513
H       22.00198567      21.38533180     101.50200385
H       17.77459365       5.22877053      77.73406678
H       18.71874249       4.75893966      76.63391020
H       19.33849634      12.53455716     106.14211422
H       18.75213167      12.16754541     104.76022014
H        8.79528667      31.62727376      67.13889290
H        8.92236455      30.20623888      67.51407433
H        8.57664962      16.36759516      74.76646228
H        7.94450558      15.59523277      75.91785143
H        9.36463535      11.08362030     104.59676160
H       10.07776196      11.18894824     105.95708145
H       15.73365480       1.32182376     109.54492813
H       14.55835309       0.44154219     109.96861924
H       28.19373004       7.54903996      64.32510782
H       27.76901206       9.03767811      64.70862656
H        8.92838645      20.80146815      66.05909205
H        8.70134836      19.67085024      65.07212380
H        7.75547911      18.53269144      79.40662456
H        8.20315023      19.97781668      79.61728422
H        5.41815935      13.72637219      98.17407968
H        4.19615873      14.45667628      98.64090369
H       18.91466755       3.90046805     116.05214089
H       19.94196966       5.01225000     115.91574642
H       16.88426676       0.92552962      90.83822419
H       18.22066179       0.08236481      90.52605874
H       22.36592715       1.13822381      82.14901504
H       22.25240384       2.09052401      80.96664387
H        7.52192744       9.30661655     118.09168286
H        8.76864755       9.22982119     119.09925956
H       20.40679736      13.51840902     104.53559096
H       19.01759399      13.34651398     103.83676896
H       27.38524431      27.78939250      84.72515361
H       25.98429783      27.74207485      84.32190322
H        9.73325477      13.94596210      69.40621931
H        8.16291323      13.93614270      69.56817130
H       16.21535945      28.31506974      56.59262922
H       14.67447193      28.23743118      56.72025110
H       17.38703537       8.31221886      96.62991533
H       15.87896199       8.46124470      96.19034916
H       25.11163806      13.43114309      65.27190963
H       24.95508287      13.61787838      63.71941952
H       10.57039501      25.25067977     104.15303665
H        9.90387695      24.55687058     102.98367679
H       29.18011324       6.17213027      71.59217941
H       28.23834736       6.86544636      72.59876959
H       30.77187330       3.17733207      99.38466089
H       31.29961487       4.34726219      98.52229104
H       20.71706230      -0.06925203      58.27292617
H       22.21396816      -0.01009052      57.91403102
H       18.88381563      24.91479098      83.95236366
H       19.68859150      23.87831244      84.69759236
H       33.60002109      28.59207572      77.72851281
H       32.74995559      28.17107280      76.45302526
H       19.51184895      33.84099645     109.80657589
H       20.87884394      33.52769017     109.21958778
H        0.57420472      29.77176872      93.09569494
H       -0.67172636      29.06167247      93.67853556
H       30.60981113       8.66046112     103.51857438
H       30.11105493      10.11971558     103.13042979
H       29.67590239      11.94906477     108.79654930
H       28.82400916      13.09071995     109.25227923
H       20.18375496      21.99916913     115.84172585
H       21.33046772      23.05369676     115.77049579
H        0.62267809       2.68572467      57.23150526
H       -0.70244827       2.53392856      56.50261794
H        7.18511091      26.68227739      57.31248193
H        8.22612298      26.09189828      56.57544159
H       24.53544972      22.02983499      66.19852502
H       24.17709717      22.35045403      64.78625644
H       32.67056444      32.82447790      83.05264486
H       32.54945675      31.59052519      82.11776490
H       18.56451637      14.60605533     102.68002726
H       19.45915629      15.74474458     103.07891984
H       28.09654878      30.18189141      58.76077049
H       28.01847104      30.00057952      57.15616765
H        1.12873103      14.40893288     102.50635603
H       -0.34171704      13.89835792     102.66888234
H       12.92837383      27.53800390     109.51508737
H       12.46258812      28.55417307     110.57080109
H        8.40798816       0.19318670     111.84457734
H        8.14114348       0.13735117     110.32786091
H       11.63786405      20.75052253      80.66983853
H       10.82115410      21.26194663      81.86506479
H        8.21566396      16.76016324      62.83787233
H        9.60657343      16.73817436      62.20309973
H       14.24908722      32.34376370      56.26962218
H       12.84009737      32.94305572      56.28564525
H       12.22066732       9.44538012      68.09522042
H       13.65037940       8.93624182      67.65810411
H       23.10772713       4.29842640      72.82074456
H       23.35237519       5.48183351      73.74357116
H       23.77168399      10.22931435     110.54169980
H       24.55567128       9.93178511     109.25965381
H       14.25756391      20.37091981      85.31839207
H       14.33429018      21.89078811      85.54834936
H       20.26855065      10.87683080     102.42806626
H       19.88692179      10.59280508     100.98353204
H        2.68207804       3.57620524     114.70727604
H        2.25032578       2.30703136     115.34738449
H       17.99985114      22.94275163     105.23038802
H       18.25596736      24.50289088     105.63071501
H       15.35454310       6.56465093      69.92787648
H       15.89909101       6.09414742      71.10047955
H       17.34671256      10.97785600      65.47094271
H       16.85795833      11.63257156      66.65330554
H       19.93277133      16.12314778     113.85889774
H       20.23705932      14.83501922     112.98434286
H       21.95425022       5.40783866      90.22873473
H       23.39349249       4.84126157      90.40092244
H        9.53819421      20.90191253      91.51735313
H        9.91227689      22.27384585      90.97635562
H        3.29562839       3.90395968      75.41917077
H        4.67223197       3.36823906      75.89106973
H        9.73994179      10.57275670      65.39728130
H        9.01848196      10.42189406      66.75922438
H        4.44646222       1.83641777     102.95121849
H        5.49929915       1.62978464     103.96528682
H       33.30191314       3.82293343     107.82402085
H       32.66772074       3.52479120     106.49211036
H       29.29248534       1.20171095      77.24233777
H       28.09523325       1.41902975      76.87200408
H       25.89480943       1.70181867     106.26068349
H       26.46983928       0.56847988     107.08392756
H       25.99611767      20.03393572     115.58335880
H       25.72939573      20.05014581     114.02663325
H       11.43559165      13.64730508     100.32056252
H       11.56997882      14.15566553     101.76250188
H       21.44432409      31.43289300      67.32452466
H       22.37902378      30.93113382      68.38606168
H        8.98074356      19.79153429      85.71869102
H        8.05298074      19.91790784      84.44390009
H       14.48729450      16.36467430      93.89369214
H       13.39693992      15.63659993      93.34409610
H       13.49421338      20.13978021      65.00231616
H       12.38425332      21.01420920      65.62326849
H        6.68827694      16.68268061      70.82065563
H        6.60619926      17.91059605      71.68636274
H       28.39806248       6.57967100     117.74890876
H       28.39986031       5.09044707     118.08137052
H        3.30879210      10.18996068     119.61055550
H        3.64898377      11.60377727     119.08030204
H        1.75206395      10.45029141     106.25997688
H        1.47310046      11.99521493     106.09937278
H       11.84984886       3.55176438     118.01235123
H       12.18506189       2.29305969     117.69621225
H       18.24361512      19.65556655      96.28850966
H       17.09979267      19.92626935      97.28931311
H       22.16007667       2.50528605     102.86823612
H       22.71873889       3.83569967     102.59113325
H       13.09384212       0.16918719      66.32922687
H       13.31505672      -0.32585716      67.70430649
H       28.75360700      10.55377674     111.95011348
H       29.37508209      10.38061175     113.34460736
H       11.52301128      30.36041586      73.11329536
H       11.88358761      29.23183636      72.10701220
H       11.30872319      18.14049872      86.54640497
H       10.79925125      17.98823769      85.15909845
H       25.71902973       4.76192001      73.85998656
H       27.25347624       4.65360564      73.84876378
H        8.58974749      16.35155223      89.36653832
H        9.12865013      14.86292806      89.38709282
H        0.96980230      10.96217368      57.46874605
H       -0.21567448      11.87162350      57.76062588
H       10.07444371      19.24633056     112.51936143
H        9.23482522      20.42563290     112.09585145
H       29.63728397      22.57551852      81.15066577
H       29.56149010      23.95439618      81.60545735
H        5.11773189      27.14975975     110.66087786
H        6.58683084      27.10812486     110.51198032
H       28.22173509       7.55203234     104.23355277
H       28.16158201       6.02410467     104.20359962
H       23.13436807      14.36346142      94.78749860
H       23.20505766      15.86259600      94.71067725
H        1.28503736       1.21071126     100.96003524
H        0.97092303      -0.31128762     101.22050810
H       15.47753811      21.73470853      73.84238268
H       16.76027653      22.34008593      74.38746617
H       18.57358616      21.24174319      85.52637865
H       17.54962578      21.72130252      84.52449530
H       16.44021493      20.20178502      67.80183914
H       16.28099191      19.87832536      66.30627567
H        2.93804685      27.28247800     109.35636972
H        2.51061636      25.99707809     108.73308082
H       19.19972533      22.83882244     112.49395677
H       19.68202359      21.72516014     113.39406466
H        1.79187697      29.47841201      65.69336805
H        2.82962414      28.36414740      66.11475543
H       28.00174330       2.68494898      65.85507389
H       27.61513240       1.35026834      66.51748264
H        9.66239249      26.04584321      77.87354240
H       10.19441295      27.20751140      77.01009497
H       24.71261305      26.79005670      87.14253972
H       25.23874510      28.30370223      87.01137970
H        1.48499376      26.12540397     116.08306523
H        1.05864904      27.32361993     115.26216863
H       31.94502780      25.67414106      64.45934785
H       32.39144003      24.61626356      63.39889743
H       18.52839437      19.18560442     115.45984608
H       19.82766604      19.46736824     116.29662641
H       27.11225609      27.84045977     119.03877217
H       28.39338020      27.01061491     119.24552656
H        1.45286240       1.59463341      76.71194282
H        0.43556642       0.46420771      76.82839010
H       23.67306324      14.67286171     101.87961414
H       23.12610768      13.28539804     101.58080462
H       29.76999055       6.66488552      96.22532338
H       29.30373158       6.02727752      97.49761364
H       19.70802932      23.95121127      79.92413151
H       20.25776907      25.22245665      80.66152628
H       17.78969947       2.20039457     110.93726804
H       16.65563721       2.85113051     110.09993358
H       32.21668761       5.95630354      83.89276349
H       33.62858984       6.03544182      84.46222702
H       24.37970750      25.39201622      53.10040712
H       23.64595648      24.68864747      54.21771998
H       33.56428679       3.22706752      61.46759766
H       32.89934664       4.10700421      60.41091358
H       28.02749932      22.92176680      59.34416268
H       27.69910383      22.25600058      57.99201445
H       20.76509298      22.50090461     101.08617789
H       22.08510488      23.14813477     100.52577663
H       25.08552774      26.15574821      67.94970189
H       25.24191026      27.57286078      68.69621352
H        9.69129180      14.51548634      95.29617236
H       10.44774031      13.29334924      94.99702001
H       12.26719962       9.42933366      81.40408154
H       13.26395718       9.88646619      82.52512886
H       11.04467485       9.19666410     108.58051468
H       12.39441934       8.54943267     108.31448942
H       13.28208869      28.55355755      81.16590084
H       14.60305080      28.77603146      81.96768416
H        1.45409943      14.38260455      55.36704727
H        2.04542156      14.07026024      54.03987288
H       33.20822516       7.14245523      71.23121704
H       33.28179673       8.15091257      72.41975447
H       24.23688321      -0.02622206      76.80118138
H       24.40927330       1.12224963      75.76745402
H       18.03415593      23.10291330      72.76374957
H       19.03306061      24.05268694      72.01390970
H       22.99861269      30.81619269      91.47653130
H       22.04535208      30.11310478      92.46259486
H        1.83043247      15.37103009      75.89348286
H        2.57835200      16.00806039      77.03243928
H        0.84672737       3.56605053      93.93370959
H       -0.70624750       3.79403261      93.91108359
H       22.81119450      22.07673657      77.73547306
H       22.10457557      20.97820466      76.90441155
H        3.94461804      18.23664527      66.24000522
H        3.79003335      19.75665577      65.97578824
H        9.14206621      22.78198464      67.36175813
H        8.25998958      21.58059313      67.20003082
H       22.30058747       4.67962262      91.57193805
H       22.28405530       5.71214119      92.76098809
H       19.29085047      23.75181497      86.82723717
H       18.93869163      22.93485677      85.65445002
H       10.10859730      13.84726427      58.93766456
H       11.24077713      14.15822980      59.92824792
H       31.95800428      19.62012749     113.11582648
H       30.49405812      19.56349486     113.26669332
H       12.39014501       6.80133044     116.88883636
H       13.08306342       7.70538875     117.87238774
H       29.83547028      16.57259504     114.60668930
H       28.40678737      17.15129627     114.68929640
H        7.57594714       1.06919803      93.35076720
H        6.66314805       0.97983583      92.34307247
H       13.15669328       5.15130019      81.34942904
H       14.66339304       4.88435813      81.38316361
H       30.02588596      28.71320517     109.46576658
H       30.20170431      28.96866662     108.03731415
H       13.70535411       7.16686398      85.33447778
H       13.95816205       8.41442648      86.26536459
H        4.20045233       2.36350345      56.31250952
H        3.65179629       1.02152293      55.76064695
H       12.11152029      31.71136312      91.44886977
H       13.59198246      31.38017244      90.95878976
H       -0.47303177      17.44074263      99.22249367
H        0.95424012      16.93623826      99.01148215
H       30.31652001      18.93087060      67.06900963
H       31.12260635      17.87760537      66.23992019
H       21.93453156      22.07826147      60.43108744
H       22.49220402      20.68465857      60.16419959
H       26.16982914       6.43781970      95.92073477
H       26.66476522       6.34709673      94.47383860
H       32.28274139      14.60607454      95.12410910
H       31.73530157      15.99285849      95.36250853
H       29.28403001       4.44384167      80.39209809
H       28.51175758       3.13445952      80.45925267
H       31.36919318       4.57107426      90.56375981
H       30.07907393       4.20504176      91.19051729
H       28.33072302      15.37748126      54.27491636
H       28.72295105      16.35730567      55.36518252
H       15.72570014      27.39291749      66.63909048
H       15.94294529      27.76543008      65.12266380
H       24.23891752       7.60151957      60.67056155
H       22.91251339       7.00700478      60.15103450
H       28.90296662      20.60694569      99.72697142
H       28.83538875      21.26135827     101.06578047
H        7.56136244      21.32534033      74.75856690
H        6.56265073      20.11066500      74.58913287
H       22.95860193      28.69542335      85.81129355
H       22.03968909      28.28569199      86.96980421
H        4.47897286      23.04914858      57.25204889
H        4.47547331      22.45154178      58.61967725
H        9.15208525      26.25262640     117.09899891
H       10.12195819      27.18467574     117.78198113
H        2.63049517      14.45404368      71.11843232
H        3.64094449      13.33259397      71.33212812
H        2.42162369      29.49326744     101.79107615
H        3.82743340      29.60010055     101.22587450
H       19.07663761      10.82974787      57.99836928
H       20.12685619       9.76044551      57.77061581
H       12.71065027      19.68287258     116.23042506
H       12.38457542      18.69289131     115.19461157
H        3.61535241      17.80658013     118.68312243
H        4.29097443      18.36529842     117.44118807
H       19.95732932       6.34849564      69.31989133
H       18.78062923       7.29906434      68.94901836
H       21.77140752      25.40657492     114.84385905
H       21.73144475      23.82842102     114.55757530
H       20.64082464       2.76043910      55.14801994
H       22.12815040       2.91371067      54.97109498
H       17.55035288      25.43335087      74.34199334
H       17.21783233      24.55576121      73.09858779
H       23.38476940      17.75964750     100.76140996
H       23.41175256      17.86483386      99.18671089
H       10.64492320       1.01418884      82.07851465
H       10.55168930       1.53624130      80.70532988
H        3.21757490      23.32185501      88.15114560
H        3.38392338      23.86822370      86.73939135
H       26.40145291       8.44369548      56.36271346
H       26.09295382       6.91312430      56.08254052
H        5.43002763       1.74769295     106.50891799
H        5.55776718       0.96214015     105.25948002
H        4.90061015      26.51219964      94.64056201
H        3.31528105      26.75706862      94.43655559
H       19.22986575      12.89825201      92.90724944
H       18.63110310      11.79334750      93.86675791
H       31.69078745      32.02377063     111.55300076
H       30.86278635      32.36146618     110.27382385
H       13.53229708      28.79686805      89.05835454
H       14.73328803      28.52026851      89.82839333
H        1.20532783      27.50284233      96.26370887
H        1.56674525      28.06006153      94.94095676
H       14.41255582      17.00414800     111.16462864
H       13.11971816      16.22492417     111.02541908
H       15.11954762      28.48924959      91.13009129
H       15.97265476      27.40399786      90.37063128
H       29.71248448      12.59064940      86.95734994
H       30.69281977      13.66320038      87.47510242
H       27.64092673      28.08096849      62.85923998
H       26.74762028      29.15059181      62.27191376
H       18.43369697      21.14812287      69.78449277
H       18.83035415      20.96030646      68.65790716
H       29.38525971      25.43754169      97.25891546
H       28.14199819      24.50862636      97.49956635
H       27.55584510      12.02106425      99.95772135
H       28.53812490      10.92278754      99.38924172
H       21.23958128      25.76523867      86.00243928
H       19.63624097      25.84452091      85.72453992
H       15.80106354      20.17386573     118.41244341
H       17.12107859      19.63871490     117.90536484
H       23.74315952       6.24497964     111.64672149
H       25.11294783       6.55847900     110.80524768
H       19.84737265      29.84688678     118.63805759
H       21.11166169      28.98184395     118.32055066
H        6.57997406      22.00305585     113.77157750
H        5.41161589      21.13953280     114.20618817
H        2.53594962      17.53831922      80.95666519
H        3.39635978      16.42246867      80.36073112
H        2.13917661      13.68201046      81.99407738
H        2.39048019      12.67477677      80.91507186
H       21.20580988      20.62716533      98.37959731
H       20.91674557      19.39029717      97.53764881
H        5.44758715      21.91678491     101.00105758
H        3.90963531      21.88027957     100.82440290
H       14.58679624      25.93028265     118.65623198
H       14.51389584      24.37020379     118.91909513
H        0.32646241      33.18211212      94.09219483
H        1.88634280      33.16512940      94.01781268
H        7.74344827      12.97168473      96.96989530
H        6.81719842      14.12265104      96.48811410
H        4.04300455      12.37946401     105.38032772
H        3.83196719      13.90522555     105.03818097
H       10.55368503      11.93475403     111.31295409
H       11.52829176      10.75111633     111.46318888
H       10.31208802      24.79426341      71.61679266
H       11.19995847      25.27453019      72.77128439
H        3.57082100      30.76572854      61.73767390
H        4.97787661      30.32881013      61.47383599
H       15.35647624       6.98462815      84.01103582
H       14.96523849       8.22759578      84.71440622
H        1.12875969       4.53182462      74.60917139
H       -0.33444820       5.02469898      74.65292248
H       27.84645176      27.31726323     100.16295335
H       27.51529972      28.84812520     100.30782938
H       11.90082588      12.01645820      99.76224228
H       10.96892409      12.13808999     101.02556400
H        5.88788674      28.12604742     119.03011317
H        5.61655831      29.56718284     119.45182844
H        5.58309659      16.24018188      94.22463143
H        6.38148900      16.99629428      93.22771229
H       14.50184155      28.69868604     102.13167802
H       14.45567466      28.94530696     103.66252342
H       22.06171235      29.13864849      63.28847019
H       22.48437746      28.84777852      61.89646534
H        1.98954686      27.71041314     104.26076957
H        1.04796976      28.95498201     103.72324121
H       22.86214676       0.89526340      73.69584050
H       23.00126108      -0.26377267      72.77811073
H       30.55089298      19.10947338      71.87269007
H       29.23857051      18.43845923      72.15062859
H       11.21635749       8.34755968      82.53714480
H       10.53205200       7.05909028      82.59874233
H       18.19609117      29.56172657     102.99077425
H       17.29190180      28.55992476     102.17641925
H       28.03162246      -0.64209517      84.50933209
H       27.23868908       0.66176537      84.95466523
H        0.73944083      33.12147565      84.48881857
H        0.46360388      31.73140961      84.91479779
H       20.91214908       1.80708250      64.45784207
H       21.75299399       0.79283612      63.62365949
H       23.77618545      23.72076420     110.16838944
H       23.80978273      22.55743968     109.18451548
H       10.85358122      15.05345417      85.69587857
H        9.98308277      15.69733710      86.05963794
H       26.31881587      22.35295120     101.86307029
H       25.96296904      23.71463113     102.54901132
H       26.30994855      13.99679338      68.89965523
H       25.65492705      14.97125950      67.87660156
H       20.96224349      15.62600075      58.21863699
H       21.03010171      16.25741260      56.74939247
H       15.87914073      27.09907744     119.51612914
H       15.16448773      28.38655852     119.59952827
H       27.50017497      27.50027869     108.62157335
H       26.15916834      26.68914358     108.42436203
H        0.41981628      30.11890429     109.81009485
H       -0.61372856      30.03904548     108.75397726
H       27.43447807       0.35364622      57.48954353
H       26.55648782       1.12072893      56.51306571
H       24.65696749      12.95175950     108.77089426
H       26.03153617      13.44611975     108.48219864
H       33.34974258      28.41927710     102.87560608
H       32.61975625      29.29359329     101.92604694
H        0.58928395      17.93997609      90.31707444
H       -0.34616620      18.18850507      91.55478271
H       13.80497659      19.10625041     112.89402546
H       13.20217881      19.45803714     114.30373698
H       30.61230548       2.19885375      67.52502810
H       31.16230925       1.34717294      68.66526023
H       32.93559259      25.40870783      65.11656303
H       33.98382727      26.16810884      64.28196037
H        0.93482922       7.58379733     116.25762971
H        0.29523012       7.94455465     114.93473824
H       14.74301781      33.04696520      69.65282993
H       13.80830973      33.85705166      68.74907017
H       24.10289641      32.62227497      80.62308243
H       22.98096262      31.95526974      79.89077617
H        7.36925818      10.62915635      60.23534359
H        6.60551844       9.69481685      61.07259807
H       31.31765383      20.22773330      99.39095883
H       30.21340901      20.21098326     100.46794442
H       29.83997919      29.97158200      69.59753912
H       29.51274118      28.00912835      69.71070506
H        9.64801182      25.80752510      96.63051850
H        9.36415805      25.44653188      95.16433777
H       16.68067280       2.02929959      92.87876620
H       15.08887312       1.89732800      92.68222534
H        7.48002291       7.11303226     110.99980802
H        7.96451442       6.89853622     112.48017414
H       19.20702686      30.20809520      97.69103732
H       20.09913193      29.00372984      97.39348162
H       26.73026416      17.89968555      67.56837409
H       26.32933353      18.58385466      66.24660090
H       22.12229477       1.16330541      97.20480128
H       21.38004787       1.57162442      98.47081419
H       24.89760279      31.21727459      89.12343385
H       25.08363495      29.71139320      88.72484727
H        2.61784289      23.51006581     115.68360498
H        2.52605962      22.23737579     114.72325735
H       12.60004669      29.04934598      83.11943063
H       11.33999547      29.90620901      83.17969263
H       17.65873151      23.05335908     119.08320248
H       18.75667528      24.12391933     118.87306113
H        5.95598261      29.98059609     113.96430159
H        4.49070331      30.43303671     113.97764619
H       29.39008123      33.55772547     119.53149753
H       30.44890837      32.85388582     118.73792206
H       12.92287307       0.86106922      98.24345061
H       12.67871366      -0.43321361      99.07011738
H        7.73888716       5.39997043      55.78694411
H        9.23337585       5.05027809      55.51146532
H       11.77268733      26.52008993      70.41507897
H       12.23645350      27.97143663      70.06290987
H       27.25962124       7.80165686     101.12811206
H       26.36867939       8.53722068     100.04810051
H       20.03156700      23.99099747     103.72571943
H       19.41911859      25.31705571     104.00672487
H       31.85607103      23.59805837     110.35839531
H       30.28207062      23.76523055     110.29986886
H        6.89621933      -0.07289748      58.15669970
H        5.82592850       1.02145200      58.36736733
H       21.63568319       0.71496198      93.05971421
H       20.30100802       0.42578175      93.56583706
H       17.53439379      29.61256645     112.07533919
H       16.05373706      29.92980441     112.39385843
H       27.60228208      30.72344069      82.48158943
H       27.72128445      32.08499543      83.15494822
H       28.27627915      10.86538036      88.93296970
H       27.37526488      10.70883445      87.73302443
H       16.04928505      30.20387518      89.91205449
H       15.81984774      31.67187994      89.46915056
H       17.24197212       7.68217018      70.24438133
H       17.12329059       6.25719884      69.50636785
H       14.87054705      23.55446617     109.43192860
H       15.47425882      23.37029429     107.99553687
H       33.65800033      31.52082622      57.64592253
H       32.20076471      31.85617512      57.60482234
H        8.53923939      19.68675062     109.47401050
H        9.16186535      18.63344667     108.65065790
H       -0.35073805      21.98484029      71.41786726
H        1.09293793      22.38780281      71.77479860
H        5.61979953      13.90240690      58.55444367
H        6.45765556      14.80550933      57.62871037
H        8.30322475      24.60986723      76.31599855
H        8.44020624      25.35247911      77.59836975
H       16.91882817      19.29872550     109.30945840
H       17.90337355      19.34704289     108.15996739
H       19.96974189      27.63040986      82.23787211
H       19.38828768      27.59275076      80.83473127
H       12.25714565      19.62662056      67.60768055
H       11.23772111      19.55012905      68.77384763
H       20.83692896      25.40492104      78.17469295
H       20.73192820      26.72461578      77.42643738
H       23.87518613      20.42809932      67.51388103
H       24.77808607      20.77967774      66.37519739
H       27.70196749      31.66619886     102.33001480
H       28.31706969      33.09686551     102.57328956
H       25.75628474       5.28816411      86.59063134
H       25.93916651       5.17616483      88.10143783
H       22.89226203      29.88895260      99.44490987
H       24.37229999      29.93598739      99.01352647
H       24.12993730      32.32282609      70.47728453
H       24.79783828      33.42475274      69.66396405
H       19.01835017      30.68263926      65.19121984
H       19.54022354      30.18393266      63.87943737
H       17.98542551      14.11337288      81.83510392
H       18.23369073      14.02515245      83.38949593
H       12.80266203      17.15754575      61.38634374
H       13.42222326      16.20663094      62.40539092
H       25.59498582      24.01535789      66.65887449
H       24.38870057      24.80369238      66.13312848
H       16.21474820       3.77072303      93.68041239
H       16.83730835       4.91361378      94.48262094
H       18.54209073      17.19252659      98.20452653
H       19.25673003      15.92018074      98.08645170
H       22.82434939      32.21405805      95.53896156
H       23.60372076      33.10630809      96.54252230
H       15.27391985      24.18306066      64.25747091
H       14.19616558      23.57120785      65.15050254
H        2.72783813       0.94347475      93.61041197
H        3.52979450       0.45853081      92.36188718
H       16.15888513      22.43378769      62.19570944
H       17.22000781      21.52491284      61.68038390
H        8.11438950       5.28550158     114.19032822
H        9.37731179       4.78584446     114.71301022
H        3.68111430      10.98316926      89.65984654
H        3.49936692      12.42389628      90.15432452
H       31.45599383      21.68612083      78.20502196
H       32.63500873      22.51514182      78.71136002
H        1.89076304      22.42070197      80.25979381
H        3.39896139      22.68502214      80.60330318
H       30.12223718      14.71008314     112.45650385
H       29.07039073      15.06108080     113.50477454
H       14.36987630      17.70084779      99.38172107
H       15.84821023      18.00721651      98.91800546
H       28.76998402       8.78792541     112.60143048
H       28.96340282       9.43662998     111.27713321
H        7.89862822      27.93402925      82.47263778
H        6.89559432      26.74948048      82.17259477
H       25.63479814      20.19341500      80.16907858
H       25.99482933      21.63471123      79.93769782
H       24.03227559       7.25835833      84.54873711
H       23.21015842       6.84567012      85.76884886
H        0.82691169      29.64851050      94.98662440
H        2.25731887      29.29445524      95.17383091
H       20.80353433      16.67263444     112.84625036
H       20.70425840      15.47086799     111.94003410
H       11.56807345      30.15433762      53.67705327
H       11.16589287      28.87141878      54.35067319
H       30.13730954       1.56218852      53.69907508
H       31.18044391       1.25310629      54.62462378
H       13.24148452      23.89736134      84.01525349
H       13.13113729      22.44254719      84.48674425
H       11.50340947       2.53663431      61.15952195
H       10.39887214       1.85159245      60.29132421
H       20.25557569      20.84601487     118.79428905
H       20.96788133      20.92898586     120.13816748
H        8.68426134      10.40991812      85.22131504
H        8.03983364       9.28499525      84.43296032
H       28.72316175      10.99818840      68.31697822
H       29.24541359      11.68312904      69.53992808
H       14.80185311      20.21857398      61.78206145
H       14.63849636      20.48366782      63.24821642
H       18.23066412       4.44745843     108.30952479
H       18.09739052       3.73582591     106.99575615
H        5.46021900       8.21799413     104.94867266
H        4.48083495       6.99034461     104.90980078
H        0.83312471      27.85064501     104.79364195
H        0.57211675      26.42297973     104.62316533
H       30.45273504      29.35379237      76.49599858
H       29.73977836      28.07811974      75.99814153
H       13.72500845      22.62390149      60.19765430
H       14.65728769      23.92053112      59.97568361
H        8.66695221      25.59929836     110.99301953
H        8.34783856      24.71030236     112.18971879
H        6.23637882      32.39973025      78.97949144
H        7.41071299      33.18731718      79.51477636
H       28.24005129       5.17610162      61.58751491
H       27.33740671       5.48883090      62.77220209
H       10.32756199       4.02517713      71.40730164
H        9.10809446       3.63145478      72.32389000
H       23.60220750      24.93829629     107.51550611
H       23.93141511      23.97909758     108.59381253
H       15.79565830      22.44529476     116.32105083
H       16.63522987      23.63718173     115.80753172
H       31.00856129      24.95506306      61.89721537
H       32.06029372      23.86901960      61.98813207
H        7.34267143       8.45111101      59.36868185
H        6.16967241       7.82660024      58.63610799
H        8.51185000      24.19738333      92.65736585
H        8.60064472      24.90171371      94.00934694
H       11.74634287      17.48944917     101.72900547
H       10.29580261      17.10435911     101.47865643
H       26.93176878      22.98712865     108.49927285
H       27.25045624      24.33062472     107.76657155
H        6.09535456      33.15551120      76.00416034
H        7.01308564      34.02163908      75.22479214
H       22.34295221      33.24222211      76.06441340
H       22.80074877      33.97782450      77.27765302
H       11.65544630      13.39726490      70.29501658
H       11.68478598      14.34152239      71.48156296
H       22.78745236      24.01005729      94.82505704
H       24.12579501      24.52135249      95.35944921
H        7.22300392       4.35973519     116.62899795
H        8.68720806       4.39294256     116.29282359
H       19.43246918       2.95570717     105.56627965
H       19.06159420       4.43070825     105.50807076
H       19.80888830       9.31451333     102.38866268
H       20.91324882       8.91185881     101.38678235
H       32.12249178       9.67354621      77.28574924
H       33.67634110       9.33745178      77.04513175
H       14.50590563       0.48491272      54.73906992
H       13.34319200       0.76780575      55.74379838
H       20.87291617       7.01326402      81.42753146
H       21.62028516       8.20278577      80.87974010
H       29.25118645      30.63648618     105.91495795
H       29.98318207      30.17443356     104.65028424
H       31.77964543       7.08417491     115.37103316
H       30.87078206       7.30863599     114.09089207
H       15.54903689      13.33619316      65.88284625
H       16.07563828      13.16394925      67.35622421
H       19.59709307       2.44894147      69.00933026
H       19.53471729       2.95164493      67.56825507
H       31.59855579      28.99102984     106.81980328
H       31.28503742      29.65920153     105.46352749
H       24.26576307      17.39852733      87.53760795
H       23.14352465      18.32563128      87.74279742
H        0.73093606      16.05815803      54.62319948
H        0.59774572      16.12582677      53.38938270
H       18.26630306      17.91667294     110.21089662
H       18.35628786      16.38258395     109.94865847
H        9.89298333      10.63106249      62.76321206
H       11.27823704      10.12411040      62.36281256
H       22.12383653       1.14234454     100.70037941
H       22.15520988      -0.30706568     101.22000108
H        2.96562653      11.52075567     117.52227293
H        1.63501141      12.27117750     117.18191836
H       31.32377984       0.61071581      88.12831030
H       31.34654902       2.06256990      88.80076092
H       24.93241229      17.30486904      82.73354426
H       24.09815378      18.29270889      82.03634411
H       21.51064618      21.13902381      69.54013240
H       20.43522830      21.78769296      69.91090320
Mg       0.00000000       0.00000000      49.96103210
Mg       0.00000000       2.09700139       1.73000002
Mg       2.09700139       0.00000000       1.73000002
Mg       2.09700139       2.09700139      49.96103210
Mg       4.19400279       0.00000000      49.96103210
Mg       4.19400279       2.09700139       1.73000002
Mg       6.29100419       0.00000000       1.73000002
Mg       6.29100419       2.09700139      49.96103210
Mg       0.00000000       4.19400279      49.96103210
Mg       0.00000000       6.29100419       1.73000002
Mg       2.09700139       4.19400279       1.73000002
Mg       2.09700139       6.29100419      49.96103210
Mg       4.19400279       4.19400279      49.96103210
Mg       4.19400279       6.29100419       1.73000002
Mg       6.29100419       4.19400279       1.73000002
Mg       6.29100419       6.29100419      49.96103210
Mg       0.00000000       0.00000000       3.82700141
Mg       0.00000000       2.09700139       5.92400281
Mg       2.09700139       0.00000000       5.92400281
Mg       2.09700139       2.09700139       3.82700141
Mg       4.19400279       0.00000000       3.82700141
Mg       4.19400279       2.09700139       5.92400281
Mg       6.29100419       0.00000000       5.92400281
Mg       6.29100419       2.09700139       3.82700141
Mg       0.00000000       4.19400279       3.82700141
Mg       0.00000000       6.29100419       5.92400281
Mg       2.09700139       4.19400279       5.92400281
Mg       2.09700139       6.29100419       3.82700141
Mg       4.19400279       4.19400279       3.82700141
Mg       4.19400279       6.29100419       5.92400281
Mg       6.29100419       4.19400279       5.92400281
Mg       6.29100419       6.29100419       3.82700141
Mg       8.38800558       0.00000000      49.96103210
Mg       8.38800558       2.09700139       1.73000002
Mg      10.48500697       0.00000000       1.73000002
Mg      10.48500697       2.09700139      49.96103210
Mg      12.58200837       0.00000000      49.96103210
Mg      12.58200837       2.09700139       1.73000002
Mg      14.67900976       0.00000000       1.73000002
Mg      14.67900976       2.09700139      49.96103210
Mg       8.38800558       4.19400279      49.96103210
Mg       8.38800558       6.29100419       1.73000002
Mg      10.48500697       4.19400279       1.73000002
Mg      10.48500697       6.29100419      49.96103210
Mg      12.58200837       4.19400279      49.96103210
Mg      12.58200837       6.29100419       1.73000002
Mg      14.67900976       4.19400279       1.73000002
Mg      14.67900976       6.29100419      49.96103210
Mg       8.38800558       0.00000000       3.82700141
Mg       8.38800558       2.09700139       5.92400281
Mg      10.48500697       0.00000000       5.92400281
Mg      10.48500697       2.09700139       3.82700141
Mg      12.58200837       0.00000000       3.82700141
Mg      12.58200837       2.09700139       5.92400281
Mg      14.67900976       0.00000000       5.92400281
Mg      14.67900976       2.09700139       3.82700141
Mg       8.38800558       4.19400279       3.82700141
Mg       8.38800558       6.29100419       5.92400281
Mg      10.48500697       4.19400279       5.92400281
Mg      10.48500697       6.29100419       3.82700141
Mg      12.58200837       4.19400279       3.82700141
Mg      12.58200837       6.29100419       5.92400281
Mg      14.67900976       4.19400279       5.92400281
Mg      14.67900976       6.29100419       3.82700141
Mg       0.00000000       8.38800558      49.96103210
Mg       0.00000000      10.48500697       1.73000002
Mg       2.09700139       8.38800558       1.73000002
Mg       2.09700139      10.48500697      49.96103210
Mg       4.19400279       8.38800558      49.96103210
Mg       4.19400279      10.48500697       1.73000002
Mg       6.29100419       8.38800558       1.73000002
Mg       6.29100419      10.48500697      49.96103210
Mg       0.00000000      12.58200837      49.96103210
Mg       0.00000000      14.67900976       1.73000002
Mg       2.09700139      12.58200837       1.73000002
Mg       2.09700139      14.67900976      49.96103210
Mg       4.19400279      12.58200837      49.96103210
Mg       4.19400279      14.67900976       1.73000002
Mg       6.29100419      12.58200837       1.73000002
Mg       6.29100419      14.67900976      49.96103210
Mg       0.00000000       8.38800558       3.82700141
Mg       0.00000000      10.48500697       5.92400281
Mg       2.09700139       8.38800558       5.92400281
Mg       2.09700139      10.48500697       3.82700141
Mg       4.19400279       8.38800558       3.82700141
Mg       4.19400279      10.48500697       5.92400281
Mg       6.29100419       8.38800558       5.92400281
Mg       6.29100419      10.48500697       3.82700141
Mg       0.00000000      12.58200837       3.82700141
Mg       0.00000000      14.67900976       5.92400281
Mg       2.09700139      12.58200837       5.92400281
Mg       2.09700139      14.67900976       3.82700141
Mg       4.19400279      12.58200837       3.82700141
Mg       4.19400279      14.67900976       5.92400281
Mg       6.29100419      12.58200837       5.92400281
Mg       6.29100419      14.67900976       3.82700141
Mg       8.38800558       8.38800558      49.96103210
Mg       8.38800558      10.48500697       1.73000002
Mg      10.48500697       8.38800558       1.73000002
Mg      10.48500697      10.48500697      49.96103210
Mg      12.58200837       8.38800558      49.96103210
Mg      12.58200837      10.48500697       1.73000002
Mg      14.67900976       8.38800558       1.73000002
Mg      14.67900976      10.48500697      49.96103210
Mg       8.38800558      12.58200837      49.96103210
Mg       8.38800558      14.67900976       1.73000002
Mg      10.48500697      12.58200837       1.73000002
Mg      10.48500697      14.67900976      49.96103210
Mg      12.58200837      12.58200837      49.96103210
Mg      12.58200837      14.67900976       1.73000002
Mg      14.67900976      12.58200837       1.73000002
Mg      14.67900976      14.67900976      49.96103210
Mg       8.38800558       8.38800558       3.82700141
Mg       8.38800558      10.48500697       5.92400281
Mg      10.48500697       8.38800558       5.92400281
Mg      10.48500697      10.48500697       3.82700141
Mg      12.58200837       8.38800558       3.82700141
Mg      12.58200837      10.48500697       5.92400281
Mg      14.67900976       8.38800558       5.92400281
Mg      14.67900976      10.48500697       3.82700141
Mg       8.38800558      12.58200837       3.82700141
Mg       8.38800558      14.67900976       5.92400281
Mg      10.48500697      12.58200837       5.92400281
Mg      10.48500697      14.67900976       3.82700141
Mg      12.58200837      12.58200837       3.82700141
Mg      12.58200837      14.67900976       5.92400281
Mg      14.67900976      12.58200837       5.92400281
Mg      14.67900976      14.67900976       3.82700141
Mg       0.00000000       0.00000000       8.02100420
Mg       0.00000000       2.09700139      10.11800560
Mg       2.09700139       0.00000000      10.11800560
Mg       2.09700139       2.09700139       8.02100420
Mg       4.19400279       0.00000000       8.02100420
Mg       4.19400279       2.09700139      10.11800560
Mg       6.29100419       0.00000000      10.11800560
Mg       6.29100419       2.09700139       8.02100420
Mg       0.00000000       4.19400279       8.02100420
Mg       0.00000000       6.29100419      10.11800560
Mg       2.09700139       4.19400279      10.11800560
Mg       2.09700139       6.29100419       8.02100420
Mg       4.19400279       4.19400279       8.02100420
Mg       4.19400279       6.29100419      10.11800560
Mg       6.29100419       4.19400279      10.11800560
Mg       6.29100419       6.29100419       8.02100420
Mg       0.00000000       0.00000000      12.21500699
Mg       0.00000000       2.09700139      14.31200839
Mg       2.09700139       0.00000000      14.31200839
Mg       2.09700139       2.09700139      12.21500699
Mg       4.19400279       0.00000000      12.21500699
Mg       4.19400279       2.09700139      14.31200839
Mg       6.29100419       0.00000000      14.31200839
Mg       6.29100419       2.09700139      12.21500699
Mg       0.00000000       4.19400279      12.21500699
Mg       0.00000000       6.29100419      14.31200839
Mg       2.09700139       4.19400279      14.31200839
Mg       2.09700139       6.29100419      12.21500699
Mg       4.19400279       4.19400279      12.21500699
Mg       4.19400279       6.29100419      14.31200839
Mg       6.29100419       4.19400279      14.31200839
Mg       6.29100419       6.29100419      12.21500699
Mg       8.38800558       0.00000000       8.02100420
Mg       8.38800558       2.09700139      10.11800560
Mg      10.48500697       0.00000000      10.11800560
Mg      10.48500697       2.09700139       8.02100420
Mg      12.58200837       0.00000000       8.02100420
Mg      12.58200837       2.09700139      10.11800560
Mg      14.67900976       0.00000000      10.11800560
Mg      14.67900976       2.09700139       8.02100420
Mg       8.38800558       4.19400279       8.02100420
Mg       8.38800558       6.29100419      10.11800560
Mg      10.48500697       4.19400279      10.11800560
Mg      10.48500697       6.29100419       8.02100420
Mg      12.58200837       4.19400279       8.02100420
Mg      12.58200837       6.29100419      10.11800560
Mg      14.67900976       4.19400279      10.11800560
Mg      14.67900976       6.29100419       8.02100420
Mg       8.38800558       0.00000000      12.21500699
Mg       8.38800558       2.09700139      14.31200839
Mg      10.48500697       0.00000000      14.31200839
Mg      10.48500697       2.09700139      12.21500699
Mg      12.58200837       0.00000000      12.21500699
Mg      12.58200837       2.09700139      14.31200839
Mg      14.67900976       0.00000000      14.31200839
Mg      14.67900976       2.09700139      12.21500699
Mg       8.38800558       4.19400279      12.21500699
Mg       8.38800558       6.29100419      14.31200839
Mg      10.48500697       4.19400279      14.31200839
Mg      10.48500697       6.29100419      12.21500699
Mg      12.58200837       4.19400279      12.21500699
Mg      12.58200837       6.29100419      14.31200839
Mg      14.67900976       4.19400279      14.31200839
Mg      14.67900976       6.29100419      12.21500699
Mg       0.00000000       8.38800558       8.02100420
Mg       0.00000000      10.48500697      10.11800560
Mg       2.09700139       8.38800558      10.11800560
Mg       2.09700139      10.48500697       8.02100420
Mg       4.19400279       8.38800558       8.02100420
Mg       4.19400279      10.48500697      10.11800560
Mg       6.29100419       8.38800558      10.11800560
Mg       6.29100419      10.48500697       8.02100420
Mg       0.00000000      12.58200837       8.02100420
Mg       0.00000000      14.67900976      10.11800560
Mg       2.09700139      12.58200837      10.11800560
Mg       2.09700139      14.67900976       8.02100420
Mg       4.19400279      12.58200837       8.02100420
Mg       4.19400279      14.67900976      10.11800560
Mg       6.29100419      12.58200837      10.11800560
Mg       6.29100419      14.67900976       8.02100420
Mg       0.00000000       8.38800558      12.21500699
Mg       0.00000000      10.48500697      14.31200839
Mg       2.09700139       8.38800558      14.31200839
Mg       2.09700139      10.48500697      12.21500699
Mg       4.19400279       8.38800558      12.21500699
Mg       4.19400279      10.48500697      14.31200839
Mg       6.29100419       8.38800558      14.31200839
Mg       6.29100419      10.48500697      12.21500699
Mg       0.00000000      12.58200837      12.21500699
Mg       0.00000000      14.67900976      14.31200839
Mg       2.09700139      12.58200837      14.31200839
Mg       2.09700139      14.67900976      12.21500699
Mg       4.19400279      12.58200837      12.21500699
Mg       4.19400279      14.67900976      14.31200839
Mg       6.29100419      12.58200837      14.31200839
Mg       6.29100419      14.67900976      12.21500699
Mg       8.38800558       8.38800558       8.02100420
Mg       8.38800558      10.48500697      10.11800560
Mg      10.48500697       8.38800558      10.11800560
Mg      10.48500697      10.48500697       8.02100420
Mg      12.58200837       8.38800558       8.02100420
Mg      12.58200837      10.48500697      10.11800560
Mg      14.67900976       8.38800558      10.11800560
Mg      14.67900976      10.48500697       8.02100420
Mg       8.38800558      12.58200837       8.02100420
Mg       8.38800558      14.67900976      10.11800560
Mg      10.48500697      12.58200837      10.11800560
Mg      10.48500697      14.67900976       8.02100420
Mg      12.58200837      12.58200837       8.02100420
Mg      12.58200837      14.67900976      10.11800560
Mg      14.67900976      12.58200837      10.11800560
Mg      14.67900976      14.67900976       8.02100420
Mg       8.38800558       8.38800558      12.21500699
Mg       8.38800558      10.48500697      14.31200839
Mg      10.48500697       8.38800558      14.31200839
Mg      10.48500697      10.48500697      12.21500699
Mg      12.58200837       8.38800558      12.21500699
Mg      12.58200837      10.48500697      14.31200839
Mg      14.67900976       8.38800558      14.31200839
Mg      14.67900976      10.48500697      12.21500699
Mg       8.38800558      12.58200837      12.21500699
Mg       8.38800558      14.67900976      14.31200839
Mg      10.48500697      12.58200837      14.31200839
Mg      10.48500697      14.67900976      12.21500699
Mg      12.58200837      12.58200837      12.21500699
Mg      12.58200837      14.67900976      14.31200839
Mg      14.67900976      12.58200837      14.31200839
Mg      14.67900976      14.67900976      12.21500699
Mg      16.77601116       0.00000000      49.96103210
Mg      16.77601116       2.09700139       1.73000002
Mg      18.87301255       0.00000000       1.73000002
Mg      18.87301255       2.09700139      49.96103210
Mg      20.97001395       0.00000000      49.96103210
Mg      20.97001395       2.09700139       1.73000002
Mg      23.06701534       0.00000000       1.73000002
Mg      23.06701534       2.09700139      49.96103210
Mg      16.77601116       4.19400279      49.96103210
Mg      16.77601116       6.29100419       1.73000002
Mg      18.87301255       4.19400279       1.73000002
Mg      18.87301255       6.29100419      49.96103210
Mg      20.97001395       4.19400279      49.96103210
Mg      20.97001395       6.29100419       1.73000002
Mg      23.06701534       4.19400279       1.73000002
Mg      23.06701534       6.29100419      49.96103210
Mg      16.77601116       0.00000000       3.82700141
Mg      16.77601116       2.09700139       5.92400281
Mg      18.87301255       0.00000000       5.92400281
Mg      18.87301255       2.09700139       3.82700141
Mg      20.97001395       0.00000000       3.82700141
Mg      20.97001395       2.09700139       5.92400281
Mg      23.06701534       0.00000000       5.92400281
Mg      23.06701534       2.09700139       3.82700141
Mg      16.77601116       4.19400279       3.82700141
Mg      16.77601116       6.29100419       5.92400281
Mg      18.87301255       4.19400279       5.92400281
Mg      18.87301255       6.29100419       3.82700141
Mg      20.97001395       4.19400279       3.82700141
Mg      20.97001395       6.29100419       5.92400281
Mg      23.06701534       4.19400279       5.92400281
Mg      23.06701534       6.29100419       3.82700141
Mg      25.16401674       0.00000000      49.96103210
Mg      25.16401674       2.09700139       1.73000002
Mg      27.26101814       0.00000000       1.73000002
Mg      27.26101814       2.09700139      49.96103210
Mg      29.35801953       0.00000000      49.96103210
Mg      29.35801953       2.09700139       1.73000002
Mg      31.45502092       0.00000000       1.73000002
Mg      31.45502092       2.09700139      49.96103210
Mg      25.16401674       4.19400279      49.96103210
Mg      25.16401674       6.29100419       1.73000002
Mg      27.26101814       4.19400279       1.73000002
Mg      27.26101814       6.29100419      49.96103210
Mg      29.35801953       4.19400279      49.96103210
Mg      29.35801953       6.29100419       1.73000002
Mg      31.45502092       4.19400279       1.73000002
Mg      31.45502092       6.29100419      49.96103210
Mg      25.16401674       0.00000000       3.82700141
Mg      25.16401674       2.09700139       5.92400281
Mg      27.26101814       0.00000000       5.92400281
Mg      27.26101814       2.09700139       3.82700141
Mg      29.35801953       0.00000000       3.82700141
Mg      29.35801953       2.09700139       5.92400281
Mg      31.45502092       0.00000000       5.92400281
Mg      31.45502092       2.09700139       3.82700141
Mg      25.16401674       4.19400279       3.82700141
Mg      25.16401674       6.29100419       5.92400281
Mg      27.26101814       4.19400279       5.92400281
Mg      27.26101814       6.29100419       3.82700141
Mg      29.35801953       4.19400279       3.82700141
Mg      29.35801953       6.29100419       5.92400281
Mg      31.45502092       4.19400279       5.92400281
Mg      31.45502092       6.29100419       3.82700141
Mg      16.77601116       8.38800558      49.96103210
Mg      16.77601116      10.48500697       1.73000002
Mg      18.87301255       8.38800558       1.73000002
Mg      18.87301255      10.48500697      49.96103210
Mg      20.97001395       8.38800558      49.96103210
Mg      20.97001395      10.48500697       1.73000002
Mg      23.06701534       8.38800558       1.73000002
Mg      23.06701534      10.48500697      49.96103210
Mg      16.77601116      12.58200837      49.96103210
Mg      16.77601116      14.67900976       1.73000002
Mg      18.87301255      12.58200837       1.73000002
Mg      18.87301255      14.67900976      49.96103210
Mg      20.97001395      12.58200837      49.96103210
Mg      20.97001395      14.67900976       1.73000002
Mg      23.06701534      12.58200837       1.73000002
Mg      23.06701534      14.67900976      49.96103210
Mg      16.77601116       8.38800558       3.82700141
Mg      16.77601116      10.48500697       5.92400281
Mg      18.87301255       8.38800558       5.92400281
Mg      18.87301255      10.48500697       3.82700141
Mg      20.97001395       8.38800558       3.82700141
Mg      20.97001395      10.48500697       5.92400281
Mg      23.06701534       8.38800558       5.92400281
Mg      23.06701534      10.48500697       3.82700141
Mg      16.77601116      12.58200837       3.82700141
Mg      16.77601116      14.67900976       5.92400281
Mg      18.87301255      12.58200837       5.92400281
Mg      18.87301255      14.67900976       3.82700141
Mg      20.97001395      12.58200837       3.82700141
Mg      20.97001395      14.67900976       5.92400281
Mg      23.06701534      12.58200837       5.92400281
Mg      23.06701534      14.67900976       3.82700141
Mg      25.16401674       8.38800558      49.96103210
Mg      25.16401674      10.48500697       1.73000002
Mg      27.26101814       8.38800558       1.73000002
Mg      27.26101814      10.48500697      49.96103210
Mg      29.35801953       8.38800558      49.96103210
Mg      29.35801953      10.48500697       1.73000002
Mg      31.45502092       8.38800558       1.73000002
Mg      31.45502092      10.48500697      49.96103210
Mg      25.16401674      12.58200837      49.96103210
Mg      25.16401674      14.67900976       1.73000002
Mg      27.26101814      12.58200837       1.73000002
Mg      27.26101814      14.67900976      49.96103210
Mg      29.35801953      12.58200837      49.96103210
Mg      29.35801953      14.67900976       1.73000002
Mg      31.45502092      12.58200837       1.73000002
Mg      31.45502092      14.67900976      49.96103210
Mg      25.16401674       8.38800558       3.82700141
Mg      25.16401674      10.48500697       5.92400281
Mg      27.26101814       8.38800558       5.92400281
Mg      27.26101814      10.48500697       3.82700141
Mg      29.35801953       8.38800558       3.82700141
Mg      29.35801953      10.48500697       5.92400281
Mg      31.45502092       8.38800558       5.92400281
Mg      31.45502092      10.48500697       3.82700141
Mg      25.16401674      12.58200837       3.82700141
Mg      25.16401674      14.67900976       5.92400281
Mg      27.26101814      12.58200837       5.92400281
Mg      27.26101814      14.67900976       3.82700141
Mg      29.35801953      12.58200837       3.82700141
Mg      29.35801953      14.67900976       5.92400281
Mg      31.45502092      12.58200837       5.92400281
Mg      31.45502092      14.67900976       3.82700141
Mg      16.77601116       0.00000000       8.02100420
Mg      16.77601116       2.09700139      10.11800560
Mg      18.87301255       0.00000000      10.11800560
Mg      18.87301255       2.09700139       8.02100420
Mg      20.97001395       0.00000000       8.02100420
Mg      20.97001395       2.09700139      10.11800560
Mg      23.06701534       0.00000000      10.11800560
Mg      23.06701534       2.09700139       8.02100420
Mg      16.77601116       4.19400279       8.02100420
Mg      16.77601116       6.29100419      10.11800560
Mg      18.87301255       4.19400279      10.11800560
Mg      18.87301255       6.29100419       8.02100420
Mg      20.97001395       4.19400279       8.02100420
Mg      20.97001395       6.29100419      10.11800560
Mg      23.06701534       4.19400279      10.11800560
Mg      23.06701534       6.29100419       8.02100420
Mg      16.77601116       0.00000000      12.21500699
Mg      16.77601116       2.09700139      14.31200839
Mg      18.87301255       0.00000000      14.31200839
Mg      18.87301255       2.09700139      12.21500699
Mg      20.97001395       0.00000000      12.21500699
Mg      20.97001395       2.09700139      14.31200839
Mg      23.06701534       0.00000000      14.31200839
Mg      23.06701534       2.09700139      12.21500699
Mg      16.77601116       4.19400279      12.21500699
Mg      16.77601116       6.29100419      14.31200839
Mg      18.87301255       4.19400279      14.31200839
Mg      18.87301255       6.29100419      12.21500699
Mg      20.97001395       4.19400279      12.21500699
Mg      20.97001395       6.29100419      14.31200839
Mg      23.06701534       4.19400279      14.31200839
Mg      23.06701534       6.29100419      12.21500699
Mg      25.16401674       0.00000000       8.02100420
Mg      25.16401674       2.09700139      10.11800560
Mg      27.26101814       0.00000000      10.11800560
Mg      27.26101814       2.09700139       8.02100420
Mg      29.35801953       0.00000000       8.02100420
Mg      29.35801953       2.09700139      10.11800560
Mg      31.45502092       0.00000000      10.11800560
Mg      31.45502092       2.09700139       8.02100420
Mg      25.16401674       4.19400279       8.02100420
Mg      25.16401674       6.29100419      10.11800560
Mg      27.26101814       4.19400279      10.11800560
Mg      27.26101814       6.29100419       8.02100420
Mg      29.35801953       4.19400279       8.02100420
Mg      29.35801953       6.29100419      10.11800560
Mg      31.45502092       4.19400279      10.11800560
Mg      31.45502092       6.29100419       8.02100420
Mg      25.16401674       0.00000000      12.21500699
Mg      25.16401674       2.09700139      14.31200839
Mg      27.26101814       0.00000000      14.31200839
Mg      27.26101814       2.09700139      12.21500699
Mg      29.35801953       0.00000000      12.21500699
Mg      29.35801953       2.09700139      14.31200839
Mg      31.45502092       0.00000000      14.31200839
Mg      31.45502092       2.09700139      12.21500699
Mg      25.16401674       4.19400279      12.21500699
Mg      25.16401674       6.29100419      14.31200839
Mg      27.26101814       4.19400279      14.31200839
Mg      27.26101814       6.29100419      12.21500699
Mg      29.35801953       4.19400279      12.21500699
Mg      29.35801953       6.29100419      14.31200839
Mg      31.45502092       4.19400279      14.31200839
Mg      31.45502092       6.29100419      12.21500699
Mg      16.77601116       8.38800558       8.02100420
Mg      16.77601116      10.48500697      10.11800560
Mg      18.87301255       8.38800558      10.11800560
Mg      18.87301255      10.48500697       8.02100420
Mg      20.97001395       8.38800558       8.02100420
Mg      20.97001395      10.48500697      10.11800560
Mg      23.06701534       8.38800558      10.11800560
Mg      23.06701534      10.48500697       8.02100420
Mg      16.77601116      12.58200837       8.02100420
Mg      16.77601116      14.67900976      10.11800560
Mg      18.87301255      12.58200837      10.11800560
Mg      18.87301255      14.67900976       8.02100420
Mg      20.97001395      12.58200837       8.02100420
Mg      20.97001395      14.67900976      10.11800560
Mg      23.06701534      12.58200837      10.11800560
Mg      23.06701534      14.67900976       8.02100420
Mg      16.77601116       8.38800558      12.21500699
Mg      16.77601116      10.48500697      14.31200839
Mg      18.87301255       8.38800558      14.31200839
Mg      18.87301255      10.48500697      12.21500699
Mg      20.97001395       8.38800558      12.21500699
Mg      20.97001395      10.48500697      14.31200839
Mg      23.06701534       8.38800558      14.31200839
Mg      23.06701534      10.48500697      12.21500699
Mg      16.77601116      12.58200837      12.21500699
Mg      16.77601116      14.67900976      14.31200839
Mg      18.87301255      12.58200837      14.31200839
Mg      18.87301255      14.67900976      12.21500699
Mg      20.97001395      12.58200837      12.21500699
Mg      20.97001395      14.67900976      14.31200839
Mg      23.06701534      12.58200837      14.31200839
Mg      23.06701534      14.67900976      12.21500699
Mg      25.16401674       8.38800558       8.02100420
Mg      25.16401674      10.48500697      10.11800560
Mg      27.26101814       8.38800558      10.11800560
Mg      27.26101814      10.48500697       8.02100420
Mg      29.35801953       8.38800558       8.02100420
Mg      29.35801953      10.48500697      10.11800560
Mg      31.45502092       8.38800558      10.11800560
Mg      31.45502092      10.48500697       8.02100420
Mg      25.16401674      12.58200837       8.02100420
Mg      25.16401674      14.67900976      10.11800560
Mg      27.26101814      12.58200837      10.11800560
Mg      27.26101814      14.67900976       8.02100420
Mg      29.35801953      12.58200837       8.02100420
Mg      29.35801953      14.67900976      10.11800560
Mg      31.45502092      12.58200837      10.11800560
Mg      31.45502092      14.67900976       8.02100420
Mg      25.16401674       8.38800558      12.21500699
Mg      25.16401674      10.48500697      14.31200839
Mg      27.26101814       8.38800558      14.31200839
Mg      27.26101814      10.48500697      12.21500699
Mg      29.35801953       8.38800558      12.21500699
Mg      29.35801953      10.48500697      14.31200839
Mg      31.45502092       8.38800558      14.31200839
Mg      31.45502092      10.48500697      12.21500699
Mg      25.16401674      12.58200837      12.21500699
Mg      25.16401674      14.67900976      14.31200839
Mg      27.26101814      12.58200837      14.31200839
Mg      27.26101814      14.67900976      12.21500699
Mg      29.35801953      12.58200837      12.21500699
Mg      29.35801953      14.67900976      14.31200839
Mg      31.45502092      12.58200837      14.31200839
Mg      31.45502092      14.67900976      12.21500699
Mg       0.00000000      16.77601116      49.96103210
Mg       0.00000000      18.87301255       1.73000002
Mg       2.09700139      16.77601116       1.73000002
Mg       2.09700139      18.87301255      49.96103210
Mg       4.19400279      16.77601116      49.96103210
Mg       4.19400279      18.87301255       1.73000002
Mg       6.29100419      16.77601116       1.73000002
Mg       6.29100419      18.87301255      49.96103210
Mg       0.00000000      20.97001395      49.96103210
Mg       0.00000000      23.06701534       1.73000002
Mg       2.09700139      20.97001395       1.73000002
Mg       2.09700139      23.06701534      49.96103210
Mg       4.19400279      20.97001395      49.96103210
Mg       4.19400279      23.06701534       1.73000002
Mg       6.29100419      20.97001395       1.73000002
Mg       6.29100419      23.06701534      49.96103210
Mg       0.00000000      16.77601116       3.82700141
Mg       0.00000000      18.87301255       5.92400281
Mg       2.09700139      16.77601116       5.92400281
Mg       2.09700139      18.87301255       3.82700141
Mg       4.19400279      16.77601116       3.82700141
Mg       4.19400279      18.87301255       5.92400281
Mg       6.29100419      16.77601116       5.92400281
Mg       6.29100419      18.87301255       3.82700141
Mg       0.00000000      20.97001395       3.82700141
Mg       0.00000000      23.06701534       5.92400281
Mg       2.09700139      20.97001395       5.92400281
Mg       2.09700139      23.06701534       3.82700141
Mg       4.19400279      20.97001395       3.82700141
Mg       4.19400279      23.06701534       5.92400281
Mg       6.29100419      20.97001395       5.92400281
Mg       6.29100419      23.06701534       3.82700141
Mg       8.38800558      16.77601116      49.96103210
Mg       8.38800558      18.87301255       1.73000002
Mg      10.48500697      16.77601116       1.73000002
Mg      10.48500697      18.87301255      49.96103210
Mg      12.58200837      16.77601116      49.96103210
Mg      12.58200837      18.87301255       1.73000002
Mg      14.67900976      16.77601116       1.73000002
Mg      14.67900976      18.87301255      49.96103210
Mg       8.38800558      20.97001395      49.96103210
Mg       8.38800558      23.06701534       1.73000002
Mg      10.48500697      20.97001395       1.73000002
Mg      10.48500697      23.06701534      49.96103210
Mg      12.58200837      20.97001395      49.96103210
Mg      12.58200837      23.06701534       1.73000002
Mg      14.67900976      20.97001395       1.73000002
Mg      14.67900976      23.06701534      49.96103210
Mg       8.38800558      16.77601116       3.82700141
Mg       8.38800558      18.87301255       5.92400281
Mg      10.48500697      16.77601116       5.92400281
Mg      10.48500697      18.87301255       3.82700141
Mg      12.58200837      16.77601116       3.82700141
Mg      12.58200837      18.87301255       5.92400281
Mg      14.67900976      16.77601116       5.92400281
Mg      14.67900976      18.87301255       3.82700141
Mg       8.38800558      20.97001395       3.82700141
Mg       8.38800558      23.06701534       5.92400281
Mg      10.48500697      20.97001395       5.92400281
Mg      10.48500697      23.06701534       3.82700141
Mg      12.58200837      20.97001395       3.82700141
Mg      12.58200837      23.06701534       5.92400281
Mg      14.67900976      20.97001395       5.92400281
Mg      14.67900976      23.06701534       3.82700141
Mg       0.00000000      25.16401674      49.96103210
Mg       0.00000000      27.26101814       1.73000002
Mg       2.09700139      25.16401674       1.73000002
Mg       2.09700139      27.26101814      49.96103210
Mg       4.19400279      25.16401674      49.96103210
Mg       4.19400279      27.26101814       1.73000002
Mg       6.29100419      25.16401674       1.73000002
Mg       6.29100419      27.26101814      49.96103210
Mg       0.00000000      29.35801953      49.96103210
Mg       0.00000000      31.45502092       1.73000002
Mg       2.09700139      29.35801953       1.73000002
Mg       2.09700139      31.45502092      49.96103210
Mg       4.19400279      29.35801953      49.96103210
Mg       4.19400279      31.45502092       1.73000002
Mg       6.29100419      29.35801953       1.73000002
Mg       6.29100419      31.45502092      49.96103210
Mg       0.00000000      25.16401674       3.82700141
Mg       0.00000000      27.26101814       5.92400281
Mg       2.09700139      25.16401674       5.92400281
Mg       2.09700139      27.26101814       3.82700141
Mg       4.19400279      25.16401674       3.82700141
Mg       4.19400279      27.26101814       5.92400281
Mg       6.29100419      25.16401674       5.92400281
Mg       6.29100419      27.26101814       3.82700141
Mg       0.00000000      29.35801953       3.82700141
Mg       0.00000000      31.45502092       5.92400281
Mg       2.09700139      29.35801953       5.92400281
Mg       2.09700139      31.45502092       3.82700141
Mg       4.19400279      29.35801953       3.82700141
Mg       4.19400279      31.45502092       5.92400281
Mg       6.29100419      29.35801953       5.92400281
Mg       6.29100419      31.45502092       3.82700141
Mg       8.38800558      25.16401674      49.96103210
Mg       8.38800558      27.26101814       1.73000002
Mg      10.48500697      25.16401674       1.73000002
Mg      10.48500697      27.26101814      49.96103210
Mg      12.58200837      25.16401674      49.96103210
Mg      12.58200837      27.26101814       1.73000002
Mg      14.67900976      25.16401674       1.73000002
Mg      14.67900976      27.26101814      49.96103210
Mg       8.38800558      29.35801953      49.96103210
Mg       8.38800558      31.45502092       1.73000002
Mg      10.48500697      29.35801953       1.73000002
Mg      10.48500697      31.45502092      49.96103210
Mg      12.58200837      29.35801953      49.96103210
Mg      12.58200837      31.45502092       1.73000002
Mg      14.67900976      29.35801953       1.73000002
Mg      14.67900976      31.45502092      49.96103210
Mg       8.38800558      25.16401674       3.82700141
Mg       8.38800558      27.26101814       5.92400281
Mg      10.48500697      25.16401674       5.92400281
Mg      10.48500697      27.26101814       3.82700141
Mg      12.58200837      25.16401674       3.82700141
Mg      12.58200837      27.26101814       5.92400281
Mg      14.67900976      25.16401674       5.92400281
Mg      14.67900976      27.26101814       3.82700141
Mg       8.38800558      29.35801953       3.82700141
Mg       8.38800558      31.45502092       5.92400281
Mg      10.48500697      29.35801953       5.92400281
Mg      10.48500697      31.45502092       3.82700141
Mg      12.58200837      29.35801953       3.82700141
Mg      12.58200837      31.45502092       5.92400281
Mg      14.67900976      29.35801953       5.92400281
Mg      14.67900976      31.45502092       3.82700141
Mg       0.00000000      16.77601116       8.02100420
Mg       0.00000000      18.87301255      10.11800560
Mg       2.09700139      16.77601116      10.11800560
Mg       2.09700139      18.87301255       8.02100420
Mg       4.19400279      16.77601116       8.02100420
Mg       4.19400279      18.87301255      10.11800560
Mg       6.29100419      16.77601116      10.11800560
Mg       6.29100419      18.87301255       8.02100420
Mg       0.00000000      20.97001395       8.02100420
Mg       0.00000000      23.06701534      10.11800560
Mg       2.09700139      20.97001395      10.11800560
Mg       2.09700139      23.06701534       8.02100420
Mg       4.19400279      20.97001395       8.02100420
Mg       4.19400279      23.06701534      10.11800560
Mg       6.29100419      20.97001395      10.11800560
Mg       6.29100419      23.06701534       8.02100420
Mg       0.00000000      16.77601116      12.21500699
Mg       0.00000000      18.87301255      14.31200839
Mg       2.09700139      16.77601116      14.31200839
Mg       2.09700139      18.87301255      12.21500699
Mg       4.19400279      16.77601116      12.21500699
Mg       4.19400279      18.87301255      14.31200839
Mg       6.29100419      16.77601116      14.31200839
Mg       6.29100419      18.87301255      12.21500699
Mg       0.00000000      20.97001395      12.21500699
Mg       0.00000000      23.06701534      14.31200839
Mg       2.09700139      20.97001395      14.31200839
Mg       2.09700139      23.06701534      12.21500699
Mg       4.19400279      20.97001395      12.21500699
Mg       4.19400279      23.06701534      14.31200839
Mg       6.29100419      20.97001395      14.31200839
Mg       6.29100419      23.06701534      12.21500699
Mg       8.38800558      16.77601116       8.02100420
Mg       8.38800558      18.87301255      10.11800560
Mg      10.48500697      16.77601116      10.11800560
Mg      10.48500697      18.87301255       8.02100420
Mg      12.58200837      16.77601116       8.02100420
Mg      12.58200837      18.87301255      10.11800560
Mg      14.67900976      16.77601116      10.11800560
Mg      14.67900976      18.87301255       8.02100420
Mg       8.38800558      20.97001395       8.02100420
Mg       8.38800558      23.06701534      10.11800560
Mg      10.48500697      20.97001395      10.11800560
Mg      10.48500697      23.06701534       8.02100420
Mg      12.58200837      20.97001395       8.02100420
Mg      12.58200837      23.06701534      10.11800560
Mg      14.67900976      20.97001395      10.11800560
Mg      14.67900976      23.06701534       8.02100420
Mg       8.38800558      16.77601116      12.21500699
Mg       8.38800558      18.87301255      14.31200839
Mg      10.48500697      16.77601116      14.31200839
Mg      10.48500697      18.87301255      12.21500699
Mg      12.58200837      16.77601116      12.21500699
Mg      12.58200837      18.87301255      14.31200839
Mg      14.67900976      16.77601116      14.31200839
Mg      14.67900976      18.87301255      12.21500699
Mg       8.38800558      20.97001395      12.21500699
Mg       8.38800558      23.06701534      14.31200839
Mg      10.48500697      20.97001395      14.31200839
Mg      10.48500697      23.06701534      12.21500699
Mg      12.58200837      20.97001395      12.21500699
Mg      12.58200837      23.06701534      14.31200839
Mg      14.67900976      20.97001395      14.31200839
Mg      14.67900976      23.06701534      12.21500699
Mg       0.00000000      25.16401674       8.02100420
Mg       0.00000000      27.26101814      10.11800560
Mg       2.09700139      25.16401674      10.11800560
Mg       2.09700139      27.26101814       8.02100420
Mg       4.19400279      25.16401674       8.02100420
Mg       4.19400279      27.26101814      10.11800560
Mg       6.29100419      25.16401674      10.11800560
Mg       6.29100419      27.26101814       8.02100420
Mg       0.00000000      29.35801953       8.02100420
Mg       0.00000000      31.45502092      10.11800560
Mg       2.09700139      29.35801953      10.11800560
Mg       2.09700139      31.45502092       8.02100420
Mg       4.19400279      29.35801953       8.02100420
Mg       4.19400279      31.45502092      10.11800560
Mg       6.29100419      29.35801953      10.11800560
Mg       6.29100419      31.45502092       8.02100420
Mg       0.00000000      25.16401674      12.21500699
Mg       0.00000000      27.26101814      14.31200839
Mg       2.09700139      25.16401674      14.31200839
Mg       2.09700139      27.26101814      12.21500699
Mg       4.19400279      25.16401674      12.21500699
Mg       4.19400279      27.26101814      14.31200839
Mg       6.29100419      25.16401674      14.31200839
Mg       6.29100419      27.26101814      12.21500699
Mg       0.00000000      29.35801953      12.21500699
Mg       0.00000000      31.45502092      14.31200839
Mg       2.09700139      29.35801953      14.31200839
Mg       2.09700139      31.45502092      12.21500699
Mg       4.19400279      29.35801953      12.21500699
Mg       4.19400279      31.45502092      14.31200839
Mg       6.29100419      29.35801953      14.31200839
Mg       6.29100419      31.45502092      12.21500699
Mg       8.38800558      25.16401674       8.02100420
Mg       8.38800558      27.26101814      10.11800560
Mg      10.48500697      25.16401674      10.11800560
Mg      10.48500697      27.26101814       8.02100420
Mg      12.58200837      25.16401674       8.02100420
Mg      12.58200837      27.26101814      10.11800560
Mg      14.67900976      25.16401674      10.11800560
Mg      14.67900976      27.26101814       8.02100420
Mg       8.38800558      29.35801953       8.02100420
Mg       8.38800558      31.45502092      10.11800560
Mg      10.48500697      29.35801953      10.11800560
Mg      10.48500697      31.45502092       8.02100420
Mg      12.58200837      29.35801953       8.02100420
Mg      12.58200837      31.45502092      10.11800560
Mg      14.67900976      29.35801953      10.11800560
Mg      14.67900976      31.45502092       8.02100420
Mg       8.38800558      25.16401674      12.21500699
Mg       8.38800558      27.26101814      14.31200839
Mg      10.48500697      25.16401674      14.31200839
Mg      10.48500697      27.26101814      12.21500699
Mg      12.58200837      25.16401674      12.21500699
Mg      12.58200837      27.26101814      14.31200839
Mg      14.67900976      25.16401674      14.31200839
Mg      14.67900976      27.26101814      12.21500699
Mg       8.38800558      29.35801953      12.21500699
Mg       8.38800558      31.45502092      14.31200839
Mg      10.48500697      29.35801953      14.31200839
Mg      10.48500697      31.45502092      12.21500699
Mg      12.58200837      29.35801953      12.21500699
Mg      12.58200837      31.45502092      14.31200839
Mg      14.67900976      29.35801953      14.31200839
Mg      14.67900976      31.45502092      12.21500699
Mg      16.77601116      16.77601116      49.96103210
Mg      16.77601116      18.87301255       1.73000002
Mg      18.87301255      16.77601116       1.73000002
Mg      18.87301255      18.87301255      49.96103210
Mg      20.97001395      16.77601116      49.96103210
Mg      20.97001395      18.87301255       1.73000002
Mg      23.06701534      16.77601116       1.73000002
Mg      23.06701534      18.87301255      49.96103210
Mg      16.77601116      20.97001395      49.96103210
Mg      16.77601116      23.06701534       1.73000002
Mg      18.87301255      20.97001395       1.73000002
Mg      18.87301255      23.06701534      49.96103210
Mg      20.97001395      20.97001395      49.96103210
Mg      20.97001395      23.06701534       1.73000002
Mg      23.06701534      20.97001395       1.73000002
Mg      23.06701534      23.06701534      49.96103210
Mg      16.77601116      16.77601116       3.82700141
Mg      16.77601116      18.87301255       5.92400281
Mg      18.87301255      16.77601116       5.92400281
Mg      18.87301255      18.87301255       3.82700141
Mg      20.97001395      16.77601116       3.82700141
Mg      20.97001395      18.87301255       5.92400281
Mg      23.06701534      16.77601116       5.92400281
Mg      23.06701534      18.87301255       3.82700141
Mg      16.77601116      20.97001395       3.82700141
Mg      16.77601116      23.06701534       5.92400281
Mg      18.87301255      20.97001395       5.92400281
Mg      18.87301255      23.06701534       3.82700141
Mg      20.97001395      20.97001395       3.82700141
Mg      20.97001395      23.06701534       5.92400281
Mg      23.06701534      20.97001395       5.92400281
Mg      23.06701534      23.06701534       3.82700141
Mg      25.16401674      16.77601116      49.96103210
Mg      25.16401674      18.87301255       1.73000002
Mg      27.26101814      16.77601116       1.73000002
Mg      27.26101814      18.87301255      49.96103210
Mg      29.35801953      16.77601116      49.96103210
Mg      29.35801953      18.87301255       1.73000002
Mg      31.45502092      16.77601116       1.73000002
Mg      31.45502092      18.87301255      49.96103210
Mg      25.16401674      20.97001395      49.96103210
Mg      25.16401674      23.06701534       1.73000002
Mg      27.26101814      20.97001395       1.73000002
Mg      27.26101814      23.06701534      49.96103210
Mg      29.35801953      20.97001395      49.96103210
Mg      29.35801953      23.06701534       1.73000002
Mg      31.45502092      20.97001395       1.73000002
Mg      31.45502092      23.06701534      49.96103210
Mg      25.16401674      16.77601116       3.82700141
Mg      25.16401674      18.87301255       5.92400281
Mg      27.26101814      16.77601116       5.92400281
Mg      27.26101814      18.87301255       3.82700141
Mg      29.35801953      16.77601116       3.82700141
Mg      29.35801953      18.87301255       5.92400281
Mg      31.45502092      16.77601116       5.92400281
Mg      31.45502092      18.87301255       3.82700141
Mg      25.16401674      20.97001395       3.82700141
Mg      25.16401674      23.06701534       5.92400281
Mg      27.26101814      20.97001395       5.92400281
Mg      27.26101814      23.06701534       3.82700141
Mg      29.35801953      20.97001395       3.82700141
Mg      29.35801953      23.06701534       5.92400281
Mg      31.45502092      20.97001395       5.92400281
Mg      31.45502092      23.06701534       3.82700141
Mg      16.77601116      25.16401674      49.96103210
Mg      16.77601116      27.26101814       1.73000002
Mg      18.87301255      25.16401674       1.73000002
Mg      18.87301255      27.26101814      49.96103210
Mg      20.97001395      25.16401674      49.96103210
Mg      20.97001395      27.26101814       1.73000002
Mg      23.06701534      25.16401674       1.73000002
Mg      23.06701534      27.26101814      49.96103210
Mg      16.77601116      29.35801953      49.96103210
Mg      16.77601116      31.45502092       1.73000002
Mg      18.87301255      29.35801953       1.73000002
Mg      18.87301255      31.45502092      49.96103210
Mg      20.97001395      29.35801953      49.96103210
Mg      20.97001395      31.45502092       1.73000002
Mg      23.06701534      29.35801953       1.73000002
Mg      23.06701534      31.45502092      49.96103210
Mg      16.77601116      25.16401674       3.82700141
Mg      16.77601116      27.26101814       5.92400281
Mg      18.87301255      25.16401674       5.92400281
Mg      18.87301255      27.26101814       3.82700141
Mg      20.97001395      25.16401674       3.82700141
Mg      20.97001395      27.26101814       5.92400281
Mg      23.06701534      25.16401674       5.92400281
Mg      23.06701534      27.26101814       3.82700141
Mg      16.77601116      29.35801953       3.82700141
Mg      16.77601116      31.45502092       5.92400281
Mg      18.87301255      29.35801953       5.92400281
Mg      18.87301255      31.45502092       3.82700141
Mg      20.97001395      29.35801953       3.82700141
Mg      20.97001395      31.45502092       5.92400281
Mg      23.06701534      29.35801953       5.92400281
Mg      23.06701534      31.45502092       3.82700141
Mg      25.16401674      25.16401674      49.96103210
Mg      25.16401674      27.26101814       1.73000002
Mg      27.26101814      25.16401674       1.73000002
Mg      27.26101814      27.26101814      49.96103210
Mg      29.35801953      25.16401674      49.96103210
Mg      29.35801953      27.26101814       1.73000002
Mg      31.45502092      25.16401674       1.73000002
Mg      31.45502092      27.26101814      49.96103210
Mg      25.16401674      29.35801953      49.96103210
Mg      25.16401674      31.45502092       1.73000002
Mg      27.26101814      29.35801953       1.73000002
Mg      27.26101814      31.45502092      49.96103210
Mg      29.35801953      29.35801953      49.96103210
Mg      29.35801953      31.45502092       1.73000002
Mg      31.45502092      29.35801953       1.73000002
Mg      31.45502092      31.45502092      49.96103210
Mg      25.16401674      25.16401674       3.82700141
Mg      25.16401674      27.26101814       5.92400281
Mg      27.26101814      25.16401674       5.92400281
Mg      27.26101814      27.26101814       3.82700141
Mg      29.35801953      25.16401674       3.82700141
Mg      29.35801953      27.26101814       5.92400281
Mg      31.45502092      25.16401674       5.92400281
Mg      31.45502092      27.26101814       3.82700141
Mg      25.16401674      29.35801953       3.82700141
Mg      25.16401674      31.45502092       5.92400281
Mg      27.26101814      29.35801953       5.92400281
Mg      27.26101814      31.45502092       3.82700141
Mg      29.35801953      29.35801953       3.82700141
Mg      29.35801953      31.45502092       5.92400281
Mg      31.45502092      29.35801953       5.92400281
Mg      31.45502092      31.45502092       3.82700141
Mg      16.77601116      16.77601116       8.02100420
Mg      16.77601116      18.87301255      10.11800560
Mg      18.87301255      16.77601116      10.11800560
Mg      18.87301255      18.87301255       8.02100420
Mg      20.97001395      16.77601116       8.02100420
Mg      20.97001395      18.87301255      10.11800560
Mg      23.06701534      16.77601116      10.11800560
Mg      23.06701534      18.87301255       8.02100420
Mg      16.77601116      20.97001395       8.02100420
Mg      16.77601116      23.06701534      10.11800560
Mg      18.87301255      20.97001395      10.11800560
Mg      18.87301255      23.06701534       8.02100420
Mg      20.97001395      20.97001395       8.02100420
Mg      20.97001395      23.06701534      10.11800560
Mg      23.06701534      20.97001395      10.11800560
Mg      23.06701534      23.06701534       8.02100420
Mg      16.77601116      16.77601116      12.21500699
Mg      16.77601116      18.87301255      14.31200839
Mg      18.87301255      16.77601116      14.31200839
Mg      18.87301255      18.87301255      12.21500699
Mg      20.97001395      16.77601116      12.21500699
Mg      20.97001395      18.87301255      14.31200839
Mg      23.06701534      16.77601116      14.31200839
Mg      23.06701534      18.87301255      12.21500699
Mg      16.77601116      20.97001395      12.21500699
Mg      16.77601116      23.06701534      14.31200839
Mg      18.87301255      20.97001395      14.31200839
Mg      18.87301255      23.06701534      12.21500699
Mg      20.97001395      20.97001395      12.21500699
Mg      20.97001395      23.06701534      14.31200839
Mg      23.06701534      20.97001395      14.31200839
Mg      23.06701534      23.06701534      12.21500699
Mg      25.16401674      16.77601116       8.02100420
Mg      25.16401674      18.87301255      10.11800560
Mg      27.26101814      16.77601116      10.11800560
Mg      27.26101814      18.87301255       8.02100420
Mg      29.35801953      16.77601116       8.02100420
Mg      29.35801953      18.87301255      10.11800560
Mg      31.45502092      16.77601116      10.11800560
Mg      31.45502092      18.87301255       8.02100420
Mg      25.16401674      20.97001395       8.02100420
Mg      25.16401674      23.06701534      10.11800560
Mg      27.26101814      20.97001395      10.11800560
Mg      27.26101814      23.06701534       8.02100420
Mg      29.35801953      20.97001395       8.02100420
Mg      29.35801953      23.06701534      10.11800560
Mg      31.45502092      20.97001395      10.11800560
Mg      31.45502092      23.06701534       8.02100420
Mg      25.16401674      16.77601116      12.21500699
Mg      25.16401674      18.87301255      14.31200839
Mg      27.26101814      16.77601116      14.31200839
Mg      27.26101814      18.87301255      12.21500699
Mg      29.35801953      16.77601116      12.21500699
Mg      29.35801953      18.87301255      14.31200839
Mg      31.45502092      16.77601116      14.31200839
Mg      31.45502092      18.87301255      12.21500699
Mg      25.16401674      20.97001395      12.21500699
Mg      25.16401674      23.06701534      14.31200839
Mg      27.26101814      20.97001395      14.31200839
Mg      27.26101814      23.06701534      12.21500699
Mg      29.35801953      20.97001395      12.21500699
Mg      29.35801953      23.06701534      14.31200839
Mg      31.45502092      20.97001395      14.31200839
Mg      31.45502092      23.06701534      12.21500699
Mg      16.77601116      25.16401674       8.02100420
Mg      16.77601116      27.26101814      10.11800560
Mg      18.87301255      25.16401674      10.11800560
Mg      18.87301255      27.26101814       8.02100420
Mg      20.97001395      25.16401674       8.02100420
Mg      20.97001395      27.26101814      10.11800560
Mg      23.06701534      25.16401674      10.11800560
Mg      23.06701534      27.26101814       8.02100420
Mg      16.77601116      29.35801953       8.02100420
Mg      16.77601116      31.45502092      10.11800560
Mg      18.87301255      29.35801953      10.11800560
Mg      18.87301255      31.45502092       8.02100420
Mg      20.97001395      29.35801953       8.02100420
Mg      20.97001395      31.45502092      10.11800560
Mg      23.06701534      29.35801953      10.11800560
Mg      23.06701534      31.45502092       8.02100420
Mg      16.77601116      25.16401674      12.21500699
Mg      16.77601116      27.26101814      14.31200839
Mg      18.87301255      25.16401674      14.31200839
Mg      18.87301255      27.26101814      12.21500699
Mg      20.97001395      25.16401674      12.21500699
Mg      20.97001395      27.26101814      14.31200839
Mg      23.06701534      25.16401674      14.31200839
Mg      23.06701534      27.26101814      12.21500699
Mg      16.77601116      29.35801953      12.21500699
Mg      16.77601116      31.45502092      14.31200839
Mg      18.87301255      29.35801953      14.31200839
Mg      18.87301255      31.45502092      12.21500699
Mg      20.97001395      29.35801953      12.21500699
Mg      20.97001395      31.45502092      14.31200839
Mg      23.06701534      29.35801953      14.31200839
Mg      23.06701534      31.45502092      12.21500699
Mg      25.16401674      25.16401674       8.02100420
Mg      25.16401674      27.26101814      10.11800560
Mg      27.26101814      25.16401674      10.11800560
Mg      27.26101814      27.26101814       8.02100420
Mg      29.35801953      25.16401674       8.02100420
Mg      29.35801953      27.26101814      10.11800560
Mg      31.45502092      25.16401674      10.11800560
Mg      31.45502092      27.26101814       8.02100420
Mg      25.16401674      29.35801953       8.02100420
Mg      25.16401674      31.45502092      10.11800560
Mg      27.26101814      29.35801953      10.11800560
Mg      27.26101814      31.45502092       8.02100420
Mg      29.35801953      29.35801953       8.02100420
Mg      29.35801953      31.45502092      10.11800560
Mg      31.45502092      29.35801953      10.11800560
Mg      31.45502092      31.45502092       8.02100420
Mg      25.16401674      25.16401674      12.21500699
Mg      25.16401674      27.26101814      14.31200839
Mg      27.26101814      25.16401674      14.31200839
Mg      27.26101814      27.26101814      12.21500699
Mg      29.35801953      25.16401674      12.21500699
Mg      29.35801953      27.26101814      14.31200839
Mg      31.45502092      25.16401674      14.31200839
Mg      31.45502092      27.26101814      12.21500699
Mg      25.16401674      29.35801953      12.21500699
Mg      25.16401674      31.45502092      14.31200839
Mg      27.26101814      29.35801953      14.31200839
Mg      27.26101814      31.45502092      12.21500699
Mg      29.35801953      29.35801953      12.21500699
Mg      29.35801953      31.45502092      14.31200839
Mg      31.45502092      29.35801953      14.31200839
Mg      31.45502092      31.45502092      12.21500699
Mg       0.00000000       0.00000000      16.40900978
Mg       0.00000000       2.09700139      18.50601118
Mg       2.09700139       0.00000000      18.50601118
Mg       2.09700139       2.09700139      16.40900978
Mg       4.19400279       0.00000000      16.40900978
Mg       4.19400279       2.09700139      18.50601118
Mg       6.29100419       0.00000000      18.50601118
Mg       6.29100419       2.09700139      16.40900978
Mg       0.00000000       4.19400279      16.40900978
Mg       0.00000000       6.29100419      18.50601118
Mg       2.09700139       4.19400279      18.50601118
Mg       2.09700139       6.29100419      16.40900978
Mg       4.19400279       4.19400279      16.40900978
Mg       4.19400279       6.29100419      18.50601118
Mg       6.29100419       4.19400279      18.50601118
Mg       6.29100419       6.29100419      16.40900978
Mg       0.00000000       0.00000000      20.60301257
Mg       0.00000000       2.09700139      22.70001397
Mg       2.09700139       0.00000000      22.70001397
Mg       2.09700139       2.09700139      20.60301257
Mg       4.19400279       0.00000000      20.60301257
Mg       4.19400279       2.09700139      22.70001397
Mg       6.29100419       0.00000000      22.70001397
Mg       6.29100419       2.09700139      20.60301257
Mg       0.00000000       4.19400279      20.60301257
Mg       0.00000000       6.29100419      22.70001397
Mg       2.09700139       4.19400279      22.70001397
Mg       2.09700139       6.29100419      20.60301257
Mg       4.19400279       4.19400279      20.60301257
Mg       4.19400279       6.29100419      22.70001397
Mg       6.29100419       4.19400279      22.70001397
Mg       6.29100419       6.29100419      20.60301257
Mg       8.38800558       0.00000000      16.40900978
Mg       8.38800558       2.09700139      18.50601118
Mg      10.48500697       0.00000000      18.50601118
Mg      10.48500697       2.09700139      16.40900978
Mg      12.58200837       0.00000000      16.40900978
Mg      12.58200837       2.09700139      18.50601118
Mg      14.67900976       0.00000000      18.50601118
Mg      14.67900976       2.09700139      16.40900978
Mg       8.38800558       4.19400279      16.40900978
Mg       8.38800558       6.29100419      18.50601118
Mg      10.48500697       4.19400279      18.50601118
Mg      10.48500697       6.29100419      16.40900978
Mg      12.58200837       4.19400279      16.40900978
Mg      12.58200837       6.29100419      18.50601118
Mg      14.67900976       4.19400279      18.50601118
Mg      14.67900976       6.29100419      16.40900978
Mg       8.38800558       0.00000000      20.60301257
Mg       8.38800558       2.09700139      22.70001397
Mg      10.48500697       0.00000000      22.70001397
Mg      10.48500697       2.09700139      20.60301257
Mg      12.58200837       0.00000000      20.60301257
Mg      12.58200837       2.09700139      22.70001397
Mg      14.67900976       0.00000000      22.70001397
Mg      14.67900976       2.09700139      20.60301257
Mg       8.38800558       4.19400279      20.60301257
Mg       8.38800558       6.29100419      22.70001397
Mg      10.48500697       4.19400279      22.70001397
Mg      10.48500697       6.29100419      20.60301257
Mg      12.58200837       4.19400279      20.60301257
Mg      12.58200837       6.29100419      22.70001397
Mg      14.67900976       4.19400279      22.70001397
Mg      14.67900976       6.29100419      20.60301257
Mg       0.00000000       8.38800558      16.40900978
Mg       0.00000000      10.48500697      18.50601118
Mg       2.09700139       8.38800558      18.50601118
Mg       2.09700139      10.48500697      16.40900978
Mg       4.19400279       8.38800558      16.40900978
Mg       4.19400279      10.48500697      18.50601118
Mg       6.29100419       8.38800558      18.50601118
Mg       6.29100419      10.48500697      16.40900978
Mg       0.00000000      12.58200837      16.40900978
Mg       0.00000000      14.67900976      18.50601118
Mg       2.09700139      12.58200837      18.50601118
Mg       2.09700139      14.67900976      16.40900978
Mg       4.19400279      12.58200837      16.40900978
Mg       4.19400279      14.67900976      18.50601118
Mg       6.29100419      12.58200837      18.50601118
Mg       6.29100419      14.67900976      16.40900978
Mg       0.00000000       8.38800558      20.60301257
Mg       0.00000000      10.48500697      22.70001397
Mg       2.09700139       8.38800558      22.70001397
Mg       2.09700139      10.48500697      20.60301257
Mg       4.19400279       8.38800558      20.60301257
Mg       4.19400279      10.48500697      22.70001397
Mg       6.29100419       8.38800558      22.70001397
Mg       6.29100419      10.48500697      20.60301257
Mg       0.00000000      12.58200837      20.60301257
Mg       0.00000000      14.67900976      22.70001397
Mg       2.09700139      12.58200837      22.70001397
Mg       2.09700139      14.67900976      20.60301257
Mg       4.19400279      12.58200837      20.60301257
Mg       4.19400279      14.67900976      22.70001397
Mg       6.29100419      12.58200837      22.70001397
Mg       6.29100419      14.67900976      20.60301257
Mg       8.38800558       8.38800558      16.40900978
Mg       8.38800558      10.48500697      18.50601118
Mg      10.48500697       8.38800558      18.50601118
Mg      10.48500697      10.48500697      16.40900978
Mg      12.58200837       8.38800558      16.40900978
Mg      12.58200837      10.48500697      18.50601118
Mg      14.67900976       8.38800558      18.50601118
Mg      14.67900976      10.48500697      16.40900978
Mg       8.38800558      12.58200837      16.40900978
Mg       8.38800558      14.67900976      18.50601118
Mg      10.48500697      12.58200837      18.50601118
Mg      10.48500697      14.67900976      16.40900978
Mg      12.58200837      12.58200837      16.40900978
Mg      12.58200837      14.67900976      18.50601118
Mg      14.67900976      12.58200837      18.50601118
Mg      14.67900976      14.67900976      16.40900978
Mg       8.38800558       8.38800558      20.60301257
Mg       8.38800558      10.48500697      22.70001397
Mg      10.48500697       8.38800558      22.70001397
Mg      10.48500697      10.48500697      20.60301257
Mg      12.58200837       8.38800558      20.60301257
Mg      12.58200837      10.48500697      22.70001397
Mg      14.67900976       8.38800558      22.70001397
Mg      14.67900976      10.48500697      20.60301257
Mg       8.38800558      12.58200837      20.60301257
Mg       8.38800558      14.67900976      22.70001397
Mg      10.48500697      12.58200837      22.70001397
Mg      10.48500697      14.67900976      20.60301257
Mg      12.58200837      12.58200837      20.60301257
Mg      12.58200837      14.67900976      22.70001397
Mg      14.67900976      12.58200837      22.70001397
Mg      14.67900976      14.67900976      20.60301257
Mg       0.00000000       0.00000000      24.79701536
Mg       0.00000000       2.09700139      26.89401676
Mg       2.09700139       0.00000000      26.89401676
Mg       2.09700139       2.09700139      24.79701536
Mg       4.19400279       0.00000000      24.79701536
Mg       4.19400279       2.09700139      26.89401676
Mg       6.29100419       0.00000000      26.89401676
Mg       6.29100419       2.09700139      24.79701536
Mg       0.00000000       4.19400279      24.79701536
Mg       0.00000000       6.29100419      26.89401676
Mg       2.09700139       4.19400279      26.89401676
Mg       2.09700139       6.29100419      24.79701536
Mg       4.19400279       4.19400279      24.79701536
Mg       4.19400279       6.29100419      26.89401676
Mg       6.29100419       4.19400279      26.89401676
Mg       6.29100419       6.29100419      24.79701536
Mg       0.00000000       0.00000000      28.99101815
Mg       0.00000000       2.09700139      31.08801955
Mg       2.09700139       0.00000000      31.08801955
Mg       2.09700139       2.09700139      28.99101815
Mg       4.19400279       0.00000000      28.99101815
Mg       4.19400279       2.09700139      31.08801955
Mg       6.29100419       0.00000000      31.08801955
Mg       6.29100419       2.09700139      28.99101815
Mg       0.00000000       4.19400279      28.99101815
Mg       0.00000000       6.29100419      31.08801955
Mg       2.09700139       4.19400279      31.08801955
Mg       2.09700139       6.29100419      28.99101815
Mg       4.19400279       4.19400279      28.99101815
Mg       4.19400279       6.29100419      31.08801955
Mg       6.29100419       4.19400279      31.08801955
Mg       6.29100419       6.29100419      28.99101815
Mg       8.38800558       0.00000000      24.79701536
Mg       8.38800558       2.09700139      26.89401676
Mg      10.48500697       0.00000000      26.89401676
Mg      10.48500697       2.09700139      24.79701536
Mg      12.58200837       0.00000000      24.79701536
Mg      12.58200837       2.09700139      26.89401676
Mg      14.67900976       0.00000000      26.89401676
Mg      14.67900976       2.09700139      24.79701536
Mg       8.38800558       4.19400279      24.79701536
Mg       8.38800558       6.29100419      26.89401676
Mg      10.48500697       4.19400279      26.89401676
Mg      10.48500697       6.29100419      24.79701536
Mg      12.58200837       4.19400279      24.79701536
Mg      12.58200837       6.29100419      26.89401676
Mg      14.67900976       4.19400279      26.89401676
Mg      14.67900976       6.29100419      24.79701536
Mg       8.38800558       0.00000000      28.99101815
Mg       8.38800558       2.09700139      31.08801955
Mg      10.48500697       0.00000000      31.08801955
Mg      10.48500697       2.09700139      28.99101815
Mg      12.58200837       0.00000000      28.99101815
Mg      12.58200837       2.09700139      31.08801955
Mg      14.67900976       0.00000000      31.08801955
Mg      14.67900976       2.09700139      28.99101815
Mg       8.38800558       4.19400279      28.99101815
Mg       8.38800558       6.29100419      31.08801955
Mg      10.48500697       4.19400279      31.08801955
Mg      10.48500697       6.29100419      28.99101815
Mg      12.58200837       4.19400279      28.99101815
Mg      12.58200837       6.29100419      31.08801955
Mg      14.67900976       4.19400279      31.08801955
Mg      14.67900976       6.29100419      28.99101815
Mg       0.00000000       8.38800558      24.79701536
Mg       0.00000000      10.48500697      26.89401676
Mg       2.09700139       8.38800558      26.89401676
Mg       2.09700139      10.48500697      24.79701536
Mg       4.19400279       8.38800558      24.79701536
Mg       4.19400279      10.48500697      26.89401676
Mg       6.29100419       8.38800558      26.89401676
Mg       6.29100419      10.48500697      24.79701536
Mg       0.00000000      12.58200837      24.79701536
Mg       0.00000000      14.67900976      26.89401676
Mg       2.09700139      12.58200837      26.89401676
Mg       2.09700139      14.67900976      24.79701536
Mg       4.19400279      12.58200837      24.79701536
Mg       4.19400279      14.67900976      26.89401676
Mg       6.29100419      12.58200837      26.89401676
Mg       6.29100419      14.67900976      24.79701536
Mg       0.00000000       8.38800558      28.99101815
Mg       0.00000000      10.48500697      31.08801955
Mg       2.09700139       8.38800558      31.08801955
Mg       2.09700139      10.48500697      28.99101815
Mg       4.19400279       8.38800558      28.99101815
Mg       4.19400279      10.48500697      31.08801955
Mg       6.29100419       8.38800558      31.08801955
Mg       6.29100419      10.48500697      28.99101815
Mg       0.00000000      12.58200837      28.99101815
Mg       0.00000000      14.67900976      31.08801955
Mg       2.09700139      12.58200837      31.08801955
Mg       2.09700139      14.67900976      28.99101815
Mg       4.19400279      12.58200837      28.99101815
Mg       4.19400279      14.67900976      31.08801955
Mg       6.29100419      12.58200837      31.08801955
Mg       6.29100419      14.67900976      28.99101815
Mg       8.38800558       8.38800558      24.79701536
Mg       8.38800558      10.48500697      26.89401676
Mg      10.48500697       8.38800558      26.89401676
Mg      10.48500697      10.48500697      24.79701536
Mg      12.58200837       8.38800558      24.79701536
Mg      12.58200837      10.48500697      26.89401676
Mg      14.67900976       8.38800558      26.89401676
Mg      14.67900976      10.48500697      24.79701536
Mg       8.38800558      12.58200837      24.79701536
Mg       8.38800558      14.67900976      26.89401676
Mg      10.48500697      12.58200837      26.89401676
Mg      10.48500697      14.67900976      24.79701536
Mg      12.58200837      12.58200837      24.79701536
Mg      12.58200837      14.67900976      26.89401676
Mg      14.67900976      12.58200837      26.89401676
Mg      14.67900976      14.67900976      24.79701536
Mg       8.38800558       8.38800558      28.99101815
Mg       8.38800558      10.48500697      31.08801955
Mg      10.48500697       8.38800558      31.08801955
Mg      10.48500697      10.48500697      28.99101815
Mg      12.58200837       8.38800558      28.99101815
Mg      12.58200837      10.48500697      31.08801955
Mg      14.67900976       8.38800558      31.08801955
Mg      14.67900976      10.48500697      28.99101815
Mg       8.38800558      12.58200837      28.99101815
Mg       8.38800558      14.67900976      31.08801955
Mg      10.48500697      12.58200837      31.08801955
Mg      10.48500697      14.67900976      28.99101815
Mg      12.58200837      12.58200837      28.99101815
Mg      12.58200837      14.67900976      31.08801955
Mg      14.67900976      12.58200837      31.08801955
Mg      14.67900976      14.67900976      28.99101815
Mg      16.77601116       0.00000000      16.40900978
Mg      16.77601116       2.09700139      18.50601118
Mg      18.87301255       0.00000000      18.50601118
Mg      18.87301255       2.09700139      16.40900978
Mg      20.97001395       0.00000000      16.40900978
Mg      20.97001395       2.09700139      18.50601118
Mg      23.06701534       0.00000000      18.50601118
Mg      23.06701534       2.09700139      16.40900978
Mg      16.77601116       4.19400279      16.40900978
Mg      16.77601116       6.29100419      18.50601118
Mg      18.87301255       4.19400279      18.50601118
Mg      18.87301255       6.29100419      16.40900978
Mg      20.97001395       4.19400279      16.40900978
Mg      20.97001395       6.29100419      18.50601118
Mg      23.06701534       4.19400279      18.50601118
Mg      23.06701534       6.29100419      16.40900978
Mg      16.77601116       0.00000000      20.60301257
Mg      16.77601116       2.09700139      22.70001397
Mg      18.87301255       0.00000000      22.70001397
Mg      18.87301255       2.09700139      20.60301257
Mg      20.97001395       0.00000000      20.60301257
Mg      20.97001395       2.09700139      22.70001397
Mg      23.06701534       0.00000000      22.70001397
Mg      23.06701534       2.09700139      20.60301257
Mg      16.77601116       4.19400279      20.60301257
Mg      16.77601116       6.29100419      22.70001397
Mg      18.87301255       4.19400279      22.70001397
Mg      18.87301255       6.29100419      20.60301257
Mg      20.97001395       4.19400279      20.60301257
Mg      20.97001395       6.29100419      22.70001397
Mg      23.06701534       4.19400279      22.70001397
Mg      23.06701534       6.29100419      20.60301257
Mg      25.16401674       0.00000000      16.40900978
Mg      25.16401674       2.09700139      18.50601118
Mg      27.26101814       0.00000000      18.50601118
Mg      27.26101814       2.09700139      16.40900978
Mg      29.35801953       0.00000000      16.40900978
Mg      29.35801953       2.09700139      18.50601118
Mg      31.45502092       0.00000000      18.50601118
Mg      31.45502092       2.09700139      16.40900978
Mg      25.16401674       4.19400279      16.40900978
Mg      25.16401674       6.29100419      18.50601118
Mg      27.26101814       4.19400279      18.50601118
Mg      27.26101814       6.29100419      16.40900978
Mg      29.35801953       4.19400279      16.40900978
Mg      29.35801953       6.29100419      18.50601118
Mg      31.45502092       4.19400279      18.50601118
Mg      31.45502092       6.29100419      16.40900978
Mg      25.16401674       0.00000000      20.60301257
Mg      25.16401674       2.09700139      22.70001397
Mg      27.26101814       0.00000000      22.70001397
Mg      27.26101814       2.09700139      20.60301257
Mg      29.35801953       0.00000000      20.60301257
Mg      29.35801953       2.09700139      22.70001397
Mg      31.45502092       0.00000000      22.70001397
Mg      31.45502092       2.09700139      20.60301257
Mg      25.16401674       4.19400279      20.60301257
Mg      25.16401674       6.29100419      22.70001397
Mg      27.26101814       4.19400279      22.70001397
Mg      27.26101814       6.29100419      20.60301257
Mg      29.35801953       4.19400279      20.60301257
Mg      29.35801953       6.29100419      22.70001397
Mg      31.45502092       4.19400279      22.70001397
Mg      31.45502092       6.29100419      20.60301257
Mg      16.77601116       8.38800558      16.40900978
Mg      16.77601116      10.48500697      18.50601118
Mg      18.87301255       8.38800558      18.50601118
Mg      18.87301255      10.48500697      16.40900978
Mg      20.97001395       8.38800558      16.40900978
Mg      20.97001395      10.48500697      18.50601118
Mg      23.06701534       8.38800558      18.50601118
Mg      23.06701534      10.48500697      16.40900978
Mg      16.77601116      12.58200837      16.40900978
Mg      16.77601116      14.67900976      18.50601118
Mg      18.87301255      12.58200837      18.50601118
Mg      18.87301255      14.67900976      16.40900978
Mg      20.97001395      12.58200837      16.40900978
Mg      20.97001395      14.67900976      18.50601118
Mg      23.06701534      12.58200837      18.50601118
Mg      23.06701534      14.67900976      16.40900978
Mg      16.77601116       8.38800558      20.60301257
Mg      16.77601116      10.48500697      22.70001397
Mg      18.87301255       8.38800558      22.70001397
Mg      18.87301255      10.48500697      20.60301257
Mg      20.97001395       8.38800558      20.60301257
Mg      20.97001395      10.48500697      22.70001397
Mg      23.06701534       8.38800558      22.70001397
Mg      23.06701534      10.48500697      20.60301257
Mg      16.77601116      12.58200837      20.60301257
Mg      16.77601116      14.67900976      22.70001397
Mg      18.87301255      12.58200837      22.70001397
Mg      18.87301255      14.67900976      20.60301257
Mg      20.97001395      12.58200837      20.60301257
Mg      20.97001395      14.67900976      22.70001397
Mg      23.06701534      12.58200837      22.70001397
Mg      23.06701534      14.67900976      20.60301257
Mg      25.16401674       8.38800558      16.40900978
Mg      25.16401674      10.48500697      18.50601118
Mg      27.26101814       8.38800558      18.50601118
Mg      27.26101814      10.48500697      16.40900978
Mg      29.35801953       8.38800558      16.40900978
Mg      29.35801953      10.48500697      18.50601118
Mg      31.45502092       8.38800558      18.50601118
Mg      31.45502092      10.48500697      16.40900978
Mg      25.16401674      12.58200837      16.40900978
Mg      25.16401674      14.67900976      18.50601118
Mg      27.26101814      12.58200837      18.50601118
Mg      27.26101814      14.67900976      16.40900978
Mg      29.35801953      12.58200837      16.40900978
Mg      29.35801953      14.67900976      18.50601118
Mg      31.45502092      12.58200837      18.50601118
Mg      31.45502092      14.67900976      16.40900978
Mg      25.16401674       8.38800558      20.60301257
Mg      25.16401674      10.48500697      22.70001397
Mg      27.26101814       8.38800558      22.70001397
Mg      27.26101814      10.48500697      20.60301257
Mg      29.35801953       8.38800558      20.60301257
Mg      29.35801953      10.48500697      22.70001397
Mg      31.45502092       8.38800558      22.70001397
Mg      31.45502092      10.48500697      20.60301257
Mg      25.16401674      12.58200837      20.60301257
Mg      25.16401674      14.67900976      22.70001397
Mg      27.26101814      12.58200837      22.70001397
Mg      27.26101814      14.67900976      20.60301257
Mg      29.35801953      12.58200837      20.60301257
Mg      29.35801953      14.67900976      22.70001397
Mg      31.45502092      12.58200837      22.70001397
Mg      31.45502092      14.67900976      20.60301257
Mg      16.77601116       0.00000000      24.79701536
Mg      16.77601116       2.09700139      26.89401676
Mg      18.87301255       0.00000000      26.89401676
Mg      18.87301255       2.09700139      24.79701536
Mg      20.97001395       0.00000000      24.79701536
Mg      20.97001395       2.09700139      26.89401676
Mg      23.06701534       0.00000000      26.89401676
Mg      23.06701534       2.09700139      24.79701536
Mg      16.77601116       4.19400279      24.79701536
Mg      16.77601116       6.29100419      26.89401676
Mg      18.87301255       4.19400279      26.89401676
Mg      18.87301255       6.29100419      24.79701536
Mg      20.97001395       4.19400279      24.79701536
Mg      20.97001395       6.29100419      26.89401676
Mg      23.06701534       4.19400279      26.89401676
Mg      23.06701534       6.29100419      24.79701536
Mg      16.77601116       0.00000000      28.99101815
Mg      16.77601116       2.09700139      31.08801955
Mg      18.87301255       0.00000000      31.08801955
Mg      18.87301255       2.09700139      28.99101815
Mg      20.97001395       0.00000000      28.99101815
Mg      20.97001395       2.09700139      31.08801955
Mg      23.06701534       0.00000000      31.08801955
Mg      23.06701534       2.09700139      28.99101815
Mg      16.77601116       4.19400279      28.99101815
Mg      16.77601116       6.29100419      31.08801955
Mg      18.87301255       4.19400279      31.08801955
Mg      18.87301255       6.29100419      28.99101815
Mg      20.97001395       4.19400279      28.99101815
Mg      20.97001395       6.29100419      31.08801955
Mg      23.06701534       4.19400279      31.08801955
Mg      23.06701534       6.29100419      28.99101815
Mg      25.16401674       0.00000000      24.79701536
Mg      25.16401674       2.09700139      26.89401676
Mg      27.26101814       0.00000000      26.89401676
Mg      27.26101814       2.09700139      24.79701536
Mg      29.35801953       0.00000000      24.79701536
Mg      29.35801953       2.09700139      26.89401676
Mg      31.45502092       0.00000000      26.89401676
Mg      31.45502092       2.09700139      24.79701536
Mg      25.16401674       4.19400279      24.79701536
Mg      25.16401674       6.29100419      26.89401676
Mg      27.26101814       4.19400279      26.89401676
Mg      27.26101814       6.29100419      24.79701536
Mg      29.35801953       4.19400279      24.79701536
Mg      29.35801953       6.29100419      26.89401676
Mg      31.45502092       4.19400279      26.89401676
Mg      31.45502092       6.29100419      24.79701536
Mg      25.16401674       0.00000000      28.99101815
Mg      25.16401674       2.09700139      31.08801955
Mg      27.26101814       0.00000000      31.08801955
Mg      27.26101814       2.09700139      28.99101815
Mg      29.35801953       0.00000000      28.99101815
Mg      29.35801953       2.09700139      31.08801955
Mg      31.45502092       0.00000000      31.08801955
Mg      31.45502092       2.09700139      28.99101815
Mg      25.16401674       4.19400279      28.99101815
Mg      25.16401674       6.29100419      31.08801955
Mg      27.26101814       4.19400279      31.08801955
Mg      27.26101814       6.29100419      28.99101815
Mg      29.35801953       4.19400279      28.99101815
Mg      29.35801953       6.29100419      31.08801955
Mg      31.45502092       4.19400279      31.08801955
Mg      31.45502092       6.29100419      28.99101815
Mg      16.77601116       8.38800558      24.79701536
Mg      16.77601116      10.48500697      26.89401676
Mg      18.87301255       8.38800558      26.89401676
Mg      18.87301255      10.48500697      24.79701536
Mg      20.97001395       8.38800558      24.79701536
Mg      20.97001395      10.48500697      26.89401676
Mg      23.06701534       8.38800558      26.89401676
Mg      23.06701534      10.48500697      24.79701536
Mg      16.77601116      12.58200837      24.79701536
Mg      16.77601116      14.67900976      26.89401676
Mg      18.87301255      12.58200837      26.89401676
Mg      18.87301255      14.67900976      24.79701536
Mg      20.97001395      12.58200837      24.79701536
Mg      20.97001395      14.67900976      26.89401676
Mg      23.06701534      12.58200837      26.89401676
Mg      23.06701534      14.67900976      24.79701536
Mg      16.77601116       8.38800558      28.99101815
Mg      16.77601116      10.48500697      31.08801955
Mg      18.87301255       8.38800558      31.08801955
Mg      18.87301255      10.48500697      28.99101815
Mg      20.97001395       8.38800558      28.99101815
Mg      20.97001395      10.48500697      31.08801955
Mg      23.06701534       8.38800558      31.08801955
Mg      23.06701534      10.48500697      28.99101815
Mg      16.77601116      12.58200837      28.99101815
Mg      16.77601116      14.67900976      31.08801955
Mg      18.87301255      12.58200837      31.08801955
Mg      18.87301255      14.67900976      28.99101815
Mg      20.97001395      12.58200837      28.99101815
Mg      20.97001395      14.67900976      31.08801955
Mg      23.06701534      12.58200837      31.08801955
Mg      23.06701534      14.67900976      28.99101815
Mg      25.16401674       8.38800558      24.79701536
Mg      25.16401674      10.48500697      26.89401676
Mg      27.26101814       8.38800558      26.89401676
Mg      27.26101814      10.48500697      24.79701536
Mg      29.35801953       8.38800558      24.79701536
Mg      29.35801953      10.48500697      26.89401676
Mg      31.45502092       8.38800558      26.89401676
Mg      31.45502092      10.48500697      24.79701536
Mg      25.16401674      12.58200837      24.79701536
Mg      25.16401674      14.67900976      26.89401676
Mg      27.26101814      12.58200837      26.89401676
Mg      27.26101814      14.67900976      24.79701536
Mg      29.35801953      12.58200837      24.79701536
Mg      29.35801953      14.67900976      26.89401676
Mg      31.45502092      12.58200837      26.89401676
Mg      31.45502092      14.67900976      24.79701536
Mg      25.16401674       8.38800558      28.99101815
Mg      25.16401674      10.48500697      31.08801955
Mg      27.26101814       8.38800558      31.08801955
Mg      27.26101814      10.48500697      28.99101815
Mg      29.35801953       8.38800558      28.99101815
Mg      29.35801953      10.48500697      31.08801955
Mg      31.45502092       8.38800558      31.08801955
Mg      31.45502092      10.48500697      28.99101815
Mg      25.16401674      12.58200837      28.99101815
Mg      25.16401674      14.67900976      31.08801955
Mg      27.26101814      12.58200837      31.08801955
Mg      27.26101814      14.67900976      28.99101815
Mg      29.35801953      12.58200837      28.99101815
Mg      29.35801953      14.67900976      31.08801955
Mg      31.45502092      12.58200837      31.08801955
Mg      31.45502092      14.67900976      28.99101815
Mg       0.00000000      16.77601116      16.40900978
Mg       0.00000000      18.87301255      18.50601118
Mg       2.09700139      16.77601116      18.50601118
Mg       2.09700139      18.87301255      16.40900978
Mg       4.19400279      16.77601116      16.40900978
Mg       4.19400279      18.87301255      18.50601118
Mg       6.29100419      16.77601116      18.50601118
Mg       6.29100419      18.87301255      16.40900978
Mg       0.00000000      20.97001395      16.40900978
Mg       0.00000000      23.06701534      18.50601118
Mg       2.09700139      20.97001395      18.50601118
Mg       2.09700139      23.06701534      16.40900978
Mg       4.19400279      20.97001395      16.40900978
Mg       4.19400279      23.06701534      18.50601118
Mg       6.29100419      20.97001395      18.50601118
Mg       6.29100419      23.06701534      16.40900978
Mg       0.00000000      16.77601116      20.60301257
Mg       0.00000000      18.87301255      22.70001397
Mg       2.09700139      16.77601116      22.70001397
Mg       2.09700139      18.87301255      20.60301257
Mg       4.19400279      16.77601116      20.60301257
Mg       4.19400279      18.87301255      22.70001397
Mg       6.29100419      16.77601116      22.70001397
Mg       6.29100419      18.87301255      20.60301257
Mg       0.00000000      20.97001395      20.60301257
Mg       0.00000000      23.06701534      22.70001397
Mg       2.09700139      20.97001395      22.70001397
Mg       2.09700139      23.06701534      20.60301257
Mg       4.19400279      20.97001395      20.60301257
Mg       4.19400279      23.06701534      22.70001397
Mg       6.29100419      20.97001395      22.70001397
Mg       6.29100419      23.06701534      20.60301257
Mg       8.38800558      16.77601116      16.40900978
Mg       8.38800558      18.87301255      18.50601118
Mg      10.48500697      16.77601116      18.50601118
Mg      10.48500697      18.87301255      16.40900978
Mg      12.58200837      16.77601116      16.40900978
Mg      12.58200837      18.87301255      18.50601118
Mg      14.67900976      16.77601116      18.50601118
Mg      14.67900976      18.87301255      16.40900978
Mg       8.38800558      20.97001395      16.40900978
Mg       8.38800558      23.06701534      18.50601118
Mg      10.48500697      20.97001395      18.50601118
Mg      10.48500697      23.06701534      16.40900978
Mg      12.58200837      20.97001395      16.40900978
Mg      12.58200837      23.06701534      18.50601118
Mg      14.67900976      20.97001395      18.50601118
Mg      14.67900976      23.06701534      16.40900978
Mg       8.38800558      16.77601116      20.60301257
Mg       8.38800558      18.87301255      22.70001397
Mg      10.48500697      16.77601116      22.70001397
Mg      10.48500697      18.87301255      20.60301257
Mg      12.58200837      16.77601116      20.60301257
Mg      12.58200837      18.87301255      22.70001397
Mg      14.67900976      16.77601116      22.70001397
Mg      14.67900976      18.87301255      20.60301257
Mg       8.38800558      20.97001395      20.60301257
Mg       8.38800558      23.06701534      22.70001397
Mg      10.48500697      20.97001395      22.70001397
Mg      10.48500697      23.06701534      20.60301257
Mg      12.58200837      20.97001395      20.60301257
Mg      12.58200837      23.06701534      22.70001397
Mg      14.67900976      20.97001395      22.70001397
Mg      14.67900976      23.06701534      20.60301257
Mg       0.00000000      25.16401674      16.40900978
Mg       0.00000000      27.26101814      18.50601118
Mg       2.09700139      25.16401674      18.50601118
Mg       2.09700139      27.26101814      16.40900978
Mg       4.19400279      25.16401674      16.40900978
Mg       4.19400279      27.26101814      18.50601118
Mg       6.29100419      25.16401674      18.50601118
Mg       6.29100419      27.26101814      16.40900978
Mg       0.00000000      29.35801953      16.40900978
Mg       0.00000000      31.45502092      18.50601118
Mg       2.09700139      29.35801953      18.50601118
Mg       2.09700139      31.45502092      16.40900978
Mg       4.19400279      29.35801953      16.40900978
Mg       4.19400279      31.45502092      18.50601118
Mg       6.29100419      29.35801953      18.50601118
Mg       6.29100419      31.45502092      16.40900978
Mg       0.00000000      25.16401674      20.60301257
Mg       0.00000000      27.26101814      22.70001397
Mg       2.09700139      25.16401674      22.70001397
Mg       2.09700139      27.26101814      20.60301257
Mg       4.19400279      25.16401674      20.60301257
Mg       4.19400279      27.26101814      22.70001397
Mg       6.29100419      25.16401674      22.70001397
Mg       6.29100419      27.26101814      20.60301257
Mg       0.00000000      29.35801953      20.60301257
Mg       0.00000000      31.45502092      22.70001397
Mg       2.09700139      29.35801953      22.70001397
Mg       2.09700139      31.45502092      20.60301257
Mg       4.19400279      29.35801953      20.60301257
Mg       4.19400279      31.45502092      22.70001397
Mg       6.29100419      29.35801953      22.70001397
Mg       6.29100419      31.45502092      20.60301257
Mg       8.38800558      25.16401674      16.40900978
Mg       8.38800558      27.26101814      18.50601118
Mg      10.48500697      25.16401674      18.50601118
Mg      10.48500697      27.26101814      16.40900978
Mg      12.58200837      25.16401674      16.40900978
Mg      12.58200837      27.26101814      18.50601118
Mg      14.67900976      25.16401674      18.50601118
Mg      14.67900976      27.26101814      16.40900978
Mg       8.38800558      29.35801953      16.40900978
Mg       8.38800558      31.45502092      18.50601118
Mg      10.48500697      29.35801953      18.50601118
Mg      10.48500697      31.45502092      16.40900978
Mg      12.58200837      29.35801953      16.40900978
Mg      12.58200837      31.45502092      18.50601118
Mg      14.67900976      29.35801953      18.50601118
Mg      14.67900976      31.45502092      16.40900978
Mg       8.38800558      25.16401674      20.60301257
Mg       8.38800558      27.26101814      22.70001397
Mg      10.48500697      25.16401674      22.70001397
Mg      10.48500697      27.26101814      20.60301257
Mg      12.58200837      25.16401674      20.60301257
Mg      12.58200837      27.26101814      22.70001397
Mg      14.67900976      25.16401674      22.70001397
Mg      14.67900976      27.26101814      20.60301257
Mg       8.38800558      29.35801953      20.60301257
Mg       8.38800558      31.45502092      22.70001397
Mg      10.48500697      29.35801953      22.70001397
Mg      10.48500697      31.45502092      20.60301257
Mg      12.58200837      29.35801953      20.60301257
Mg      12.58200837      31.45502092      22.70001397
Mg      14.67900976      29.35801953      22.70001397
Mg      14.67900976      31.45502092      20.60301257
Mg       0.00000000      16.77601116      24.79701536
Mg       0.00000000      18.87301255      26.89401676
Mg       2.09700139      16.77601116      26.89401676
Mg       2.09700139      18.87301255      24.79701536
Mg       4.19400279      16.77601116      24.79701536
Mg       4.19400279      18.87301255      26.89401676
Mg       6.29100419      16.77601116      26.89401676
Mg       6.29100419      18.87301255      24.79701536
Mg       0.00000000      20.97001395      24.79701536
Mg       0.00000000      23.06701534      26.89401676
Mg       2.09700139      20.97001395      26.89401676
Mg       2.09700139      23.06701534      24.79701536
Mg       4.19400279      20.97001395      24.79701536
Mg       4.19400279      23.06701534      26.89401676
Mg       6.29100419      20.97001395      26.89401676
Mg       6.29100419      23.06701534      24.79701536
Mg       0.00000000      16.77601116      28.99101815
Mg       0.00000000      18.87301255      31.08801955
Mg       2.09700139      16.77601116      31.08801955
Mg       2.09700139      18.87301255      28.99101815
Mg       4.19400279      16.77601116      28.99101815
Mg       4.19400279      18.87301255      31.08801955
Mg       6.29100419      16.77601116      31.08801955
Mg       6.29100419      18.87301255      28.99101815
Mg       0.00000000      20.97001395      28.99101815
Mg       0.00000000      23.06701534      31.08801955
Mg       2.09700139      20.97001395      31.08801955
Mg       2.09700139      23.06701534      28.99101815
Mg       4.19400279      20.97001395      28.99101815
Mg       4.19400279      23.06701534      31.08801955
Mg       6.29100419      20.97001395      31.08801955
Mg       6.29100419      23.06701534      28.99101815
Mg       8.38800558      16.77601116      24.79701536
Mg       8.38800558      18.87301255      26.89401676
Mg      10.48500697      16.77601116      26.89401676
Mg      10.48500697      18.87301255      24.79701536
Mg      12.58200837      16.77601116      24.79701536
Mg      12.58200837      18.87301255      26.89401676
Mg      14.67900976      16.77601116      26.89401676
Mg      14.67900976      18.87301255      24.79701536
Mg       8.38800558      20.97001395      24.79701536
Mg       8.38800558      23.06701534      26.89401676
Mg      10.48500697      20.97001395      26.89401676
Mg      10.48500697      23.06701534      24.79701536
Mg      12.58200837      20.97001395      24.79701536
Mg      12.58200837      23.06701534      26.89401676
Mg      14.67900976      20.97001395      26.89401676
Mg      14.67900976      23.06701534      24.79701536
Mg       8.38800558      16.77601116      28.99101815
Mg       8.38800558      18.87301255      31.08801955
Mg      10.48500697      16.77601116      31.08801955
Mg      10.48500697      18.87301255      28.99101815
Mg      12.58200837      16.77601116      28.99101815
Mg      12.58200837      18.87301255      31.08801955
Mg      14.67900976      16.77601116      31.08801955
Mg      14.67900976      18.87301255      28.99101815
Mg       8.38800558      20.97001395      28.99101815
Mg       8.38800558      23.06701534      31.08801955
Mg      10.48500697      20.97001395      31.08801955
Mg      10.48500697      23.06701534      28.99101815
Mg      12.58200837      20.97001395      28.99101815
Mg      12.58200837      23.06701534      31.08801955
Mg      14.67900976      20.97001395      31.08801955
Mg      14.67900976      23.06701534      28.99101815
Mg       0.00000000      25.16401674      24.79701536
Mg       0.00000000      27.26101814      26.89401676
Mg       2.09700139      25.16401674      26.89401676
Mg       2.09700139      27.26101814      24.79701536
Mg       4.19400279      25.16401674      24.79701536
Mg       4.19400279      27.26101814      26.89401676
Mg       6.29100419      25.16401674      26.89401676
Mg       6.29100419      27.26101814      24.79701536
Mg       0.00000000      29.35801953      24.79701536
Mg       0.00000000      31.45502092      26.89401676
Mg       2.09700139      29.35801953      26.89401676
Mg       2.09700139      31.45502092      24.79701536
Mg       4.19400279      29.35801953      24.79701536
Mg       4.19400279      31.45502092      26.89401676
Mg       6.29100419      29.35801953      26.89401676
Mg       6.29100419      31.45502092      24.79701536
Mg       0.00000000      25.16401674      28.99101815
Mg       0.00000000      27.26101814      31.08801955
Mg       2.09700139      25.16401674      31.08801955
Mg       2.09700139      27.26101814      28.99101815
Mg       4.19400279      25.16401674      28.99101815
Mg       4.19400279      27.26101814      31.08801955
Mg       6.29100419      25.16401674      31.08801955
Mg       6.29100419      27.26101814      28.99101815
Mg       0.00000000      29.35801953      28.99101815
Mg       0.00000000      31.45502092      31.08801955
Mg       2.09700139      29.35801953      31.08801955
Mg       2.09700139      31.45502092      28.99101815
Mg       4.19400279      29.35801953      28.99101815
Mg       4.19400279      31.45502092      31.08801955
Mg       6.29100419      29.35801953      31.08801955
Mg       6.29100419      31.45502092      28.99101815
Mg       8.38800558      25.16401674      24.79701536
Mg       8.38800558      27.26101814      26.89401676
Mg      10.48500697      25.16401674      26.89401676
Mg      10.48500697      27.26101814      24.79701536
Mg      12.58200837      25.16401674      24.79701536
Mg      12.58200837      27.26101814      26.89401676
Mg      14.67900976      25.16401674      26.89401676
Mg      14.67900976      27.26101814      24.79701536
Mg       8.38800558      29.35801953      24.79701536
Mg       8.38800558      31.45502092      26.89401676
Mg      10.48500697      29.35801953      26.89401676
Mg      10.48500697      31.45502092      24.79701536
Mg      12.58200837      29.35801953      24.79701536
Mg      12.58200837      31.45502092      26.89401676
Mg      14.67900976      29.35801953      26.89401676
Mg      14.67900976      31.45502092      24.79701536
Mg       8.38800558      25.16401674      28.99101815
Mg       8.38800558      27.26101814      31.08801955
Mg      10.48500697      25.16401674      31.08801955
Mg      10.48500697      27.26101814      28.99101815
Mg      12.58200837      25.16401674      28.99101815
Mg      12.58200837      27.26101814      31.08801955
Mg      14.67900976      25.16401674      31.08801955
Mg      14.67900976      27.26101814      28.99101815
Mg       8.38800558      29.35801953      28.99101815
Mg       8.38800558      31.45502092      31.08801955
Mg      10.48500697      29.35801953      31.08801955
Mg      10.48500697      31.45502092      28.99101815
Mg      12.58200837      29.35801953      28.99101815
Mg      12.58200837      31.45502092      31.08801955
Mg      14.67900976      29.35801953      31.08801955
Mg      14.67900976      31.45502092      28.99101815
Mg      16.77601116      16.77601116      16.40900978
Mg      16.77601116      18.87301255      18.50601118
Mg      18.87301255      16.77601116      18.50601118
Mg      18.87301255      18.87301255      16.40900978
Mg      20.97001395      16.77601116      16.40900978
Mg      20.97001395      18.87301255      18.50601118
Mg      23.06701534      16.77601116      18.50601118
Mg      23.06701534      18.87301255      16.40900978
Mg      16.77601116      20.97001395      16.40900978
Mg      16.77601116      23.06701534      18.50601118
Mg      18.87301255      20.97001395      18.50601118
Mg      18.87301255      23.06701534      16.40900978
Mg      20.97001395      20.97001395      16.40900978
Mg      20.97001395      23.06701534      18.50601118
Mg      23.06701534      20.97001395      18.50601118
Mg      23.06701534      23.06701534      16.40900978
Mg      16.77601116      16.77601116      20.60301257
Mg      16.77601116      18.87301255      22.70001397
Mg      18.87301255      16.77601116      22.70001397
Mg      18.87301255      18.87301255      20.60301257
Mg      20.97001395      16.77601116      20.60301257
Mg      20.97001395      18.87301255      22.70001397
Mg      23.06701534      16.77601116      22.70001397
Mg      23.06701534      18.87301255      20.60301257
Mg      16.77601116      20.97001395      20.60301257
Mg      16.77601116      23.06701534      22.70001397
Mg      18.87301255      20.97001395      22.70001397
Mg      18.87301255      23.06701534      20.60301257
Mg      20.97001395      20.97001395      20.60301257
Mg      20.97001395      23.06701534      22.70001397
Mg      23.06701534      20.97001395      22.70001397
Mg      23.06701534      23.06701534      20.60301257
Mg      25.16401674      16.77601116      16.40900978
Mg      25.16401674      18.87301255      18.50601118
Mg      27.26101814      16.77601116      18.50601118
Mg      27.26101814      18.87301255      16.40900978
Mg      29.35801953      16.77601116      16.40900978
Mg      29.35801953      18.87301255      18.50601118
Mg      31.45502092      16.77601116      18.50601118
Mg      31.45502092      18.87301255      16.40900978
Mg      25.16401674      20.97001395      16.40900978
Mg      25.16401674      23.06701534      18.50601118
Mg      27.26101814      20.97001395      18.50601118
Mg      27.26101814      23.06701534      16.40900978
Mg      29.35801953      20.97001395      16.40900978
Mg      29.35801953      23.06701534      18.50601118
Mg      31.45502092      20.97001395      18.50601118
Mg      31.45502092      23.06701534      16.40900978
Mg      25.16401674      16.77601116      20.60301257
Mg      25.16401674      18.87301255      22.70001397
Mg      27.26101814      16.77601116      22.70001397
Mg      27.26101814      18.87301255      20.60301257
Mg      29.35801953      16.77601116      20.60301257
Mg      29.35801953      18.87301255      22.70001397
Mg      31.45502092      16.77601116      22.70001397
Mg      31.45502092      18.87301255      20.60301257
Mg      25.16401674      20.97001395      20.60301257
Mg      25.16401674      23.06701534      22.70001397
Mg      27.26101814      20.97001395      22.70001397
Mg      27.26101814      23.06701534      20.60301257
Mg      29.35801953      20.97001395      20.60301257
Mg      29.35801953      23.06701534      22.70001397
Mg      31.45502092      20.97001395      22.70001397
Mg      31.45502092      23.06701534      20.60301257
Mg      16.77601116      25.16401674      16.40900978
Mg      16.77601116      27.26101814      18.50601118
Mg      18.87301255      25.16401674      18.50601118
Mg      18.87301255      27.26101814      16.40900978
Mg      20.97001395      25.16401674      16.40900978
Mg      20.97001395      27.26101814      18.50601118
Mg      23.06701534      25.16401674      18.50601118
Mg      23.06701534      27.26101814      16.40900978
Mg      16.77601116      29.35801953      16.40900978
Mg      16.77601116      31.45502092      18.50601118
Mg      18.87301255      29.35801953      18.50601118
Mg      18.87301255      31.45502092      16.40900978
Mg      20.97001395      29.35801953      16.40900978
Mg      20.97001395      31.45502092      18.50601118
Mg      23.06701534      29.35801953      18.50601118
Mg      23.06701534      31.45502092      16.40900978
Mg      16.77601116      25.16401674      20.60301257
Mg      16.77601116      27.26101814      22.70001397
Mg      18.87301255      25.16401674      22.70001397
Mg      18.87301255      27.26101814      20.60301257
Mg      20.97001395      25.16401674      20.60301257
Mg      20.97001395      27.26101814      22.70001397
Mg      23.06701534      25.16401674      22.70001397
Mg      23.06701534      27.26101814      20.60301257
Mg      16.77601116      29.35801953      20.60301257
Mg      16.77601116      31.45502092      22.70001397
Mg      18.87301255      29.35801953      22.70001397
Mg      18.87301255      31.45502092      20.60301257
Mg      20.97001395      29.35801953      20.60301257
Mg      20.97001395      31.45502092      22.70001397
Mg      23.06701534      29.35801953      22.70001397
Mg      23.06701534      31.45502092      20.60301257
Mg      25.16401674      25.16401674      16.40900978
Mg      25.16401674      27.26101814      18.50601118
Mg      27.26101814      25.16401674      18.50601118
Mg      27.26101814      27.26101814      16.40900978
Mg      29.35801953      25.16401674      16.40900978
Mg      29.35801953      27.26101814      18.50601118
Mg      31.45502092      25.16401674      18.50601118
Mg      31.45502092      27.26101814      16.40900978
Mg      25.16401674      29.35801953      16.40900978
Mg      25.16401674      31.45502092      18.50601118
Mg      27.26101814      29.35801953      18.50601118
Mg      27.26101814      31.45502092      16.40900978
Mg      29.35801953      29.35801953      16.40900978
Mg      29.35801953      31.45502092      18.50601118
Mg      31.45502092      29.35801953      18.50601118
Mg      31.45502092      31.45502092      16.40900978
Mg      25.16401674      25.16401674      20.60301257
Mg      25.16401674      27.26101814      22.70001397
Mg      27.26101814      25.16401674      22.70001397
Mg      27.26101814      27.26101814      20.60301257
Mg      29.35801953      25.16401674      20.60301257
Mg      29.35801953      27.26101814      22.70001397
Mg      31.45502092      25.16401674      22.70001397
Mg      31.45502092      27.26101814      20.60301257
Mg      25.16401674      29.35801953      20.60301257
Mg      25.16401674      31.45502092      22.70001397
Mg      27.26101814      29.35801953      22.70001397
Mg      27.26101814      31.45502092      20.60301257
Mg      29.35801953      29.35801953      20.60301257
Mg      29.35801953      31.45502092      22.70001397
Mg      31.45502092      29.35801953      22.70001397
Mg      31.45502092      31.45502092      20.60301257
Mg      16.77601116      16.77601116      24.79701536
Mg      16.77601116      18.87301255      26.89401676
Mg      18.87301255      16.77601116      26.89401676
Mg      18.87301255      18.87301255      24.79701536
Mg      20.97001395      16.77601116      24.79701536
Mg      20.97001395      18.87301255      26.89401676
Mg      23.06701534      16.77601116      26.89401676
Mg      23.06701534      18.87301255      24.79701536
Mg      16.77601116      20.97001395      24.79701536
Mg      16.77601116      23.06701534      26.89401676
Mg      18.87301255      20.97001395      26.89401676
Mg      18.87301255      23.06701534      24.79701536
Mg      20.97001395      20.97001395      24.79701536
Mg      20.97001395      23.06701534      26.89401676
Mg      23.06701534      20.97001395      26.89401676
Mg      23.06701534      23.06701534      24.79701536
Mg      16.77601116      16.77601116      28.99101815
Mg      16.77601116      18.87301255      31.08801955
Mg      18.87301255      16.77601116      31.08801955
Mg      18.87301255      18.87301255      28.99101815
Mg      20.97001395      16.77601116      28.99101815
Mg      20.97001395      18.87301255      31.08801955
Mg      23.06701534      16.77601116      31.08801955
Mg      23.06701534      18.87301255      28.99101815
Mg      16.77601116      20.97001395      28.99101815
Mg      16.77601116      23.06701534      31.08801955
Mg      18.87301255      20.97001395      31.08801955
Mg      18.87301255      23.06701534      28.99101815
Mg      20.97001395      20.97001395      28.99101815
Mg      20.97001395      23.06701534      31.08801955
Mg      23.06701534      20.97001395      31.08801955
Mg      23.06701534      23.06701534      28.99101815
Mg      25.16401674      16.77601116      24.79701536
Mg      25.16401674      18.87301255      26.89401676
Mg      27.26101814      16.77601116      26.89401676
Mg      27.26101814      18.87301255      24.79701536
Mg      29.35801953      16.77601116      24.79701536
Mg      29.35801953      18.87301255      26.89401676
Mg      31.45502092      16.77601116      26.89401676
Mg      31.45502092      18.87301255      24.79701536
Mg      25.16401674      20.97001395      24.79701536
Mg      25.16401674      23.06701534      26.89401676
Mg      27.26101814      20.97001395      26.89401676
Mg      27.26101814      23.06701534      24.79701536
Mg      29.35801953      20.97001395      24.79701536
Mg      29.35801953      23.06701534      26.89401676
Mg      31.45502092      20.97001395      26.89401676
Mg      31.45502092      23.06701534      24.79701536
Mg      25.16401674      16.77601116      28.99101815
Mg      25.16401674      18.87301255      31.08801955
Mg      27.26101814      16.77601116      31.08801955
Mg      27.26101814      18.87301255      28.99101815
Mg      29.35801953      16.77601116      28.99101815
Mg      29.35801953      18.87301255      31.08801955
Mg      31.45502092      16.77601116      31.08801955
Mg      31.45502092      18.87301255      28.99101815
Mg      25.16401674      20.97001395      28.99101815
Mg      25.16401674      23.06701534      31.08801955
Mg      27.26101814      20.97001395      31.08801955
Mg      27.26101814      23.06701534      28.99101815
Mg      29.35801953      20.97001395      28.99101815
Mg      29.35801953      23.06701534      31.08801955
Mg      31.45502092      20.97001395      31.08801955
Mg      31.45502092      23.06701534      28.99101815
Mg      16.77601116      25.16401674      24.79701536
Mg      16.77601116      27.26101814      26.89401676
Mg      18.87301255      25.16401674      26.89401676
Mg      18.87301255      27.26101814      24.79701536
Mg      20.97001395      25.16401674      24.79701536
Mg      20.97001395      27.26101814      26.89401676
Mg      23.06701534      25.16401674      26.89401676
Mg      23.06701534      27.26101814      24.79701536
Mg      16.77601116      29.35801953      24.79701536
Mg      16.77601116      31.45502092      26.89401676
Mg      18.87301255      29.35801953      26.89401676
Mg      18.87301255      31.45502092      24.79701536
Mg      20.97001395      29.35801953      24.79701536
Mg      20.97001395      31.45502092      26.89401676
Mg      23.06701534      29.35801953      26.89401676
Mg      23.06701534      31.45502092      24.79701536
Mg      16.77601116      25.16401674      28.99101815
Mg      16.77601116      27.26101814      31.08801955
Mg      18.87301255      25.16401674      31.08801955
Mg      18.87301255      27.26101814      28.99101815
Mg      20.97001395      25.16401674      28.99101815
Mg      20.97001395      27.26101814      31.08801955
Mg      23.06701534      25.16401674      31.08801955
Mg      23.06701534      27.26101814      28.99101815
Mg      16.77601116      29.35801953      28.99101815
Mg      16.77601116      31.45502092      31.08801955
Mg      18.87301255      29.35801953      31.08801955
Mg      18.87301255      31.45502092      28.99101815
Mg      20.97001395      29.35801953      28.99101815
Mg      20.97001395      31.45502092      31.08801955
Mg      23.06701534      29.35801953      31.08801955
Mg      23.06701534      31.45502092      28.99101815
Mg      25.16401674      25.16401674      24.79701536
Mg      25.16401674      27.26101814      26.89401676
Mg      27.26101814      25.16401674      26.89401676
Mg      27.26101814      27.26101814      24.79701536
Mg      29.35801953      25.16401674      24.79701536
Mg      29.35801953      27.26101814      26.89401676
Mg      31.45502092      25.16401674      26.89401676
Mg      31.45502092      27.26101814      24.79701536
Mg      25.16401674      29.35801953      24.79701536
Mg      25.16401674      31.45502092      26.89401676
Mg      27.26101814      29.35801953      26.89401676
Mg      27.26101814      31.45502092      24.79701536
Mg      29.35801953      29.35801953      24.79701536
Mg      29.35801953      31.45502092      26.89401676
Mg      31.45502092      29.35801953      26.89401676
Mg      31.45502092      31.45502092      24.79701536
Mg      25.16401674      25.16401674      28.99101815
Mg      25.16401674      27.26101814      31.08801955
Mg      27.26101814      25.16401674      31.08801955
Mg      27.26101814      27.26101814      28.99101815
Mg      29.35801953      25.16401674      28.99101815
Mg      29.35801953      27.26101814      31.08801955
Mg      31.45502092      25.16401674      31.08801955
Mg      31.45502092      27.26101814      28.99101815
Mg      25.16401674      29.35801953      28.99101815
Mg      25.16401674      31.45502092      31.08801955
Mg      27.26101814      29.35801953      31.08801955
Mg      27.26101814      31.45502092      28.99101815
Mg      29.35801953      29.35801953      28.99101815
Mg      29.35801953      31.45502092      31.08801955
Mg      31.45502092      29.35801953      31.08801955
Mg      31.45502092      31.45502092      28.99101815
Mg       0.00000000       0.00000000      33.18502094
Mg       0.00000000       2.09700139      35.28202234
Mg       2.09700139       0.00000000      35.28202234
Mg       2.09700139       2.09700139      33.18502094
Mg       4.19400279       0.00000000      33.18502094
Mg       4.19400279       2.09700139      35.28202234
Mg       6.29100419       0.00000000      35.28202234
Mg       6.29100419       2.09700139      33.18502094
Mg       0.00000000       4.19400279      33.18502094
Mg       0.00000000       6.29100419      35.28202234
Mg       2.09700139       4.19400279      35.28202234
Mg       2.09700139       6.29100419      33.18502094
Mg       4.19400279       4.19400279      33.18502094
Mg       4.19400279       6.29100419      35.28202234
Mg       6.29100419       4.19400279      35.28202234
Mg       6.29100419       6.29100419      33.18502094
Mg       0.00000000       0.00000000      37.37902373
Mg       0.00000000       2.09700139      39.47602513
Mg       2.09700139       0.00000000      39.47602513
Mg       2.09700139       2.09700139      37.37902373
Mg       4.19400279       0.00000000      37.37902373
Mg       4.19400279       2.09700139      39.47602513
Mg       6.29100419       0.00000000      39.47602513
Mg       6.29100419       2.09700139      37.37902373
Mg       0.00000000       4.19400279      37.37902373
Mg       0.00000000       6.29100419      39.47602513
Mg       2.09700139       4.19400279      39.47602513
Mg       2.09700139       6.29100419      37.37902373
Mg       4.19400279       4.19400279      37.37902373
Mg       4.19400279       6.29100419      39.47602513
Mg       6.29100419       4.19400279      39.47602513
Mg       6.29100419       6.29100419      37.37902373
Mg       8.38800558       0.00000000      33.18502094
Mg       8.38800558       2.09700139      35.28202234
Mg      10.48500697       0.00000000      35.28202234
Mg      10.48500697       2.09700139      33.18502094
Mg      12.58200837       0.00000000      33.18502094
Mg      12.58200837       2.09700139      35.28202234
Mg      14.67900976       0.00000000      35.28202234
Mg      14.67900976       2.09700139      33.18502094
Mg       8.38800558       4.19400279      33.18502094
Mg       8.38800558       6.29100419      35.28202234
Mg      10.48500697       4.19400279      35.28202234
Mg      10.48500697       6.29100419      33.18502094
Mg      12.58200837       4.19400279      33.18502094
Mg      12.58200837       6.29100419      35.28202234
Mg      14.67900976       4.19400279      35.28202234
Mg      14.67900976       6.29100419      33.18502094
Mg       8.38800558       0.00000000      37.37902373
Mg       8.38800558       2.09700139      39.47602513
Mg      10.48500697       0.00000000      39.47602513
Mg      10.48500697       2.09700139      37.37902373
Mg      12.58200837       0.00000000      37.37902373
Mg      12.58200837       2.09700139      39.47602513
Mg      14.67900976       0.00000000      39.47602513
Mg      14.67900976       2.09700139      37.37902373
Mg       8.38800558       4.19400279      37.37902373
Mg       8.38800558       6.29100419      39.47602513
Mg      10.48500697       4.19400279      39.47602513
Mg      10.48500697       6.29100419      37.37902373
Mg      12.58200837       4.19400279      37.37902373
Mg      12.58200837       6.29100419      39.47602513
Mg      14.67900976       4.19400279      39.47602513
Mg      14.67900976       6.29100419      37.37902373
Mg       0.00000000       8.38800558      33.18502094
Mg       0.00000000      10.48500697      35.28202234
Mg       2.09700139       8.38800558      35.28202234
Mg       2.09700139      10.48500697      33.18502094
Mg       4.19400279       8.38800558      33.18502094
Mg       4.19400279      10.48500697      35.28202234
Mg       6.29100419       8.38800558      35.28202234
Mg       6.29100419      10.48500697      33.18502094
Mg       0.00000000      12.58200837      33.18502094
Mg       0.00000000      14.67900976      35.28202234
Mg       2.09700139      12.58200837      35.28202234
Mg       2.09700139      14.67900976      33.18502094
Mg       4.19400279      12.58200837      33.18502094
Mg       4.19400279      14.67900976      35.28202234
Mg       6.29100419      12.58200837      35.28202234
Mg       6.29100419      14.67900976      33.18502094
Mg       0.00000000       8.38800558      37.37902373
Mg       0.00000000      10.48500697      39.47602513
Mg       2.09700139       8.38800558      39.47602513
Mg       2.09700139      10.48500697      37.37902373
Mg       4.19400279       8.38800558      37.37902373
Mg       4.19400279      10.48500697      39.47602513
Mg       6.29100419       8.38800558      39.47602513
Mg       6.29100419      10.48500697      37.37902373
Mg       0.00000000      12.58200837      37.37902373
Mg       0.00000000      14.67900976      39.47602513
Mg       2.09700139      12.58200837      39.47602513
Mg       2.09700139      14.67900976      37.37902373
Mg       4.19400279      12.58200837      37.37902373
Mg       4.19400279      14.67900976      39.47602513
Mg       6.29100419      12.58200837      39.47602513
Mg       6.29100419      14.67900976      37.37902373
Mg       8.38800558       8.38800558      33.18502094
Mg       8.38800558      10.48500697      35.28202234
Mg      10.48500697       8.38800558      35.28202234
Mg      10.48500697      10.48500697      33.18502094
Mg      12.58200837       8.38800558      33.18502094
Mg      12.58200837      10.48500697      35.28202234
Mg      14.67900976       8.38800558      35.28202234
Mg      14.67900976      10.48500697      33.18502094
Mg       8.38800558      12.58200837      33.18502094
Mg       8.38800558      14.67900976      35.28202234
Mg      10.48500697      12.58200837      35.28202234
Mg      10.48500697      14.67900976      33.18502094
Mg      12.58200837      12.58200837      33.18502094
Mg      12.58200837      14.67900976      35.28202234
Mg      14.67900976      12.58200837      35.28202234
Mg      14.67900976      14.67900976      33.18502094
Mg       8.38800558       8.38800558      37.37902373
Mg       8.38800558      10.48500697      39.47602513
Mg      10.48500697       8.38800558      39.47602513
Mg      10.48500697      10.48500697      37.37902373
Mg      12.58200837       8.38800558      37.37902373
Mg      12.58200837      10.48500697      39.47602513
Mg      14.67900976       8.38800558      39.47602513
Mg      14.67900976      10.48500697      37.37902373
Mg       8.38800558      12.58200837      37.37902373
Mg       8.38800558      14.67900976      39.47602513
Mg      10.48500697      12.58200837      39.47602513
Mg      10.48500697      14.67900976      37.37902373
Mg      12.58200837      12.58200837      37.37902373
Mg      12.58200837      14.67900976      39.47602513
Mg      14.67900976      12.58200837      39.47602513
Mg      14.67900976      14.67900976      37.37902373
Mg       0.00000000       0.00000000      41.57302652
Mg       0.00000000       2.09700139      43.67002792
Mg       2.09700139       0.00000000      43.67002792
Mg       2.09700139       2.09700139      41.57302652
Mg       4.19400279       0.00000000      41.57302652
Mg       4.19400279       2.09700139      43.67002792
Mg       6.29100419       0.00000000      43.67002792
Mg       6.29100419       2.09700139      41.57302652
Mg       0.00000000       4.19400279      41.57302652
Mg       0.00000000       6.29100419      43.67002792
Mg       2.09700139       4.19400279      43.67002792
Mg       2.09700139       6.29100419      41.57302652
Mg       4.19400279       4.19400279      41.57302652
Mg       4.19400279       6.29100419      43.67002792
Mg       6.29100419       4.19400279      43.67002792
Mg       6.29100419       6.29100419      41.57302652
Mg       0.00000000       0.00000000      45.76702931
Mg       0.00000000       2.09700139      47.86403071
Mg       2.09700139       0.00000000      47.86403071
Mg       2.09700139       2.09700139      45.76702931
Mg       4.19400279       0.00000000      45.76702931
Mg       4.19400279       2.09700139      47.86403071
Mg       6.29100419       0.00000000      47.86403071
Mg       6.29100419       2.09700139      45.76702931
Mg       0.00000000       4.19400279      45.76702931
Mg       0.00000000       6.29100419      47.86403071
Mg       2.09700139       4.19400279      47.86403071
Mg       2.09700139       6.29100419      45.76702931
Mg       4.19400279       4.19400279      45.76702931
Mg       4.19400279       6.29100419      47.86403071
Mg       6.29100419       4.19400279      47.86403071
Mg       6.29100419       6.29100419      45.76702931
Mg       8.38800558       0.00000000      41.57302652
Mg       8.38800558       2.09700139      43.67002792
Mg      10.48500697       0.00000000      43.67002792
Mg      10.48500697       2.09700139      41.57302652
Mg      12.58200837       0.00000000      41.57302652
Mg      12.58200837       2.09700139      43.67002792
Mg      14.67900976       0.00000000      43.67002792
Mg      14.67900976       2.09700139      41.57302652
Mg       8.38800558       4.19400279      41.57302652
Mg       8.38800558       6.29100419      43.67002792
Mg      10.48500697       4.19400279      43.67002792
Mg      10.48500697       6.29100419      41.57302652
Mg      12.58200837       4.19400279      41.57302652
Mg      12.58200837       6.29100419      43.67002792
Mg      14.67900976       4.19400279      43.67002792
Mg      14.67900976       6.29100419      41.57302652
Mg       8.38800558       0.00000000      45.76702931
Mg       8.38800558       2.09700139      47.86403071
Mg      10.48500697       0.00000000      47.86403071
Mg      10.48500697       2.09700139      45.76702931
Mg      12.58200837       0.00000000      45.76702931
Mg      12.58200837       2.09700139      47.86403071
Mg      14.67900976       0.00000000      47.86403071
Mg      14.67900976       2.09700139      45.76702931
Mg       8.38800558       4.19400279      45.76702931
Mg       8.38800558       6.29100419      47.86403071
Mg      10.48500697       4.19400279      47.86403071
Mg      10.48500697       6.29100419      45.76702931
Mg      12.58200837       4.19400279      45.76702931
Mg      12.58200837       6.29100419      47.86403071
Mg      14.67900976       4.19400279      47.86403071
Mg      14.67900976       6.29100419      45.76702931
Mg       0.00000000       8.38800558      41.57302652
Mg       0.00000000      10.48500697      43.67002792
Mg       2.09700139       8.38800558      43.67002792
Mg       2.09700139      10.48500697      41.57302652
Mg       4.19400279       8.38800558      41.57302652
Mg       4.19400279      10.48500697      43.67002792
Mg       6.29100419       8.38800558      43.67002792
Mg       6.29100419      10.48500697      41.57302652
Mg       0.00000000      12.58200837      41.57302652
Mg       0.00000000      14.67900976      43.67002792
Mg       2.09700139      12.58200837      43.67002792
Mg       2.09700139      14.67900976      41.57302652
Mg       4.19400279      12.58200837      41.57302652
Mg       4.19400279      14.67900976      43.67002792
Mg       6.29100419      12.58200837      43.67002792
Mg       6.29100419      14.67900976      41.57302652
Mg       0.00000000       8.38800558      45.76702931
Mg       0.00000000      10.48500697      47.86403071
Mg       2.09700139       8.38800558      47.86403071
Mg       2.09700139      10.48500697      45.76702931
Mg       4.19400279       8.38800558      45.76702931
Mg       4.19400279      10.48500697      47.86403071
Mg       6.29100419       8.38800558      47.86403071
Mg       6.29100419      10.48500697      45.76702931
Mg       0.00000000      12.58200837      45.76702931
Mg       0.00000000      14.67900976      47.86403071
Mg       2.09700139      12.58200837      47.86403071
Mg       2.09700139      14.67900976      45.76702931
Mg       4.19400279      12.58200837      45.76702931
Mg       4.19400279      14.67900976      47.86403071
Mg       6.29100419      12.58200837      47.86403071
Mg       6.29100419      14.67900976      45.76702931
Mg       8.38800558       8.38800558      41.57302652
Mg       8.38800558      10.48500697      43.67002792
Mg      10.48500697       8.38800558      43.67002792
Mg      10.48500697      10.48500697      41.57302652
Mg      12.58200837       8.38800558      41.57302652
Mg      12.58200837      10.48500697      43.67002792
Mg      14.67900976       8.38800558      43.67002792
Mg      14.67900976      10.48500697      41.57302652
Mg       8.38800558      12.58200837      41.57302652
Mg       8.38800558      14.67900976      43.67002792
Mg      10.48500697      12.58200837      43.67002792
Mg      10.48500697      14.67900976      41.57302652
Mg      12.58200837      12.58200837      41.57302652
Mg      12.58200837      14.67900976      43.67002792
Mg      14.67900976      12.58200837      43.67002792
Mg      14.67900976      14.67900976      41.57302652
Mg       8.38800558       8.38800558      45.76702931
Mg       8.38800558      10.48500697      47.86403071
Mg      10.48500697       8.38800558      47.86403071
Mg      10.48500697      10.48500697      45.76702931
Mg      12.58200837       8.38800558      45.76702931
Mg      12.58200837      10.48500697      47.86403071
Mg      14.67900976       8.38800558      47.86403071
Mg      14.67900976      10.48500697      45.76702931
Mg       8.38800558      12.58200837      45.76702931
Mg       8.38800558      14.67900976      47.86403071
Mg      10.48500697      12.58200837      47.86403071
Mg      10.48500697      14.67900976      45.76702931
Mg      12.58200837      12.58200837      45.76702931
Mg      12.58200837      14.67900976      47.86403071
Mg      14.67900976      12.58200837      47.86403071
Mg      14.67900976      14.67900976      45.76702931
Mg      16.77601116       0.00000000      33.18502094
Mg      16.77601116       2.09700139      35.28202234
Mg      18.87301255       0.00000000      35.28202234
Mg      18.87301255       2.09700139      33.18502094
Mg      20.97001395       0.00000000      33.18502094
Mg      20.97001395       2.09700139      35.28202234
Mg      23.06701534       0.00000000      35.28202234
Mg      23.06701534       2.09700139      33.18502094
Mg      16.77601116       4.19400279      33.18502094
Mg      16.77601116       6.29100419      35.28202234
Mg      18.87301255       4.19400279      35.28202234
Mg      18.87301255       6.29100419      33.18502094
Mg      20.97001395       4.19400279      33.18502094
Mg      20.97001395       6.29100419      35.28202234
Mg      23.06701534       4.19400279      35.28202234
Mg      23.06701534       6.29100419      33.18502094
Mg      16.77601116       0.00000000      37.37902373
Mg      16.77601116       2.09700139      39.47602513
Mg      18.87301255       0.00000000      39.47602513
Mg      18.87301255       2.09700139      37.37902373
Mg      20.97001395       0.00000000      37.37902373
Mg      20.97001395       2.09700139      39.47602513
Mg      23.06701534       0.00000000      39.47602513
Mg      23.06701534       2.09700139      37.37902373
Mg      16.77601116       4.19400279      37.37902373
Mg      16.77601116       6.29100419      39.47602513
Mg      18.87301255       4.19400279      39.47602513
Mg      18.87301255       6.29100419      37.37902373
Mg      20.97001395       4.19400279      37.37902373
Mg      20.97001395       6.29100419      39.47602513
Mg      23.06701534       4.19400279      39.47602513
Mg      23.06701534       6.29100419      37.37902373
Mg      25.16401674       0.00000000      33.18502094
Mg      25.16401674       2.09700139      35.28202234
Mg      27.26101814       0.00000000      35.28202234
Mg      27.26101814       2.09700139      33.18502094
Mg      29.35801953       0.00000000      33.18502094
Mg      29.35801953       2.09700139      35.28202234
Mg      31.45502092       0.00000000      35.28202234
Mg      31.45502092       2.09700139      33.18502094
Mg      25.16401674       4.19400279      33.18502094
Mg      25.16401674       6.29100419      35.28202234
Mg      27.26101814       4.19400279      35.28202234
Mg      27.26101814       6.29100419      33.18502094
Mg      29.35801953       4.19400279      33.18502094
Mg      29.35801953       6.29100419      35.28202234
Mg      31.45502092       4.19400279      35.28202234
Mg      31.45502092       6.29100419      33.18502094
Mg      25.16401674       0.00000000      37.37902373
Mg      25.16401674       2.09700139      39.47602513
Mg      27.26101814       0.00000000      39.47602513
Mg      27.26101814       2.09700139      37.37902373
Mg      29.35801953       0.00000000      37.37902373
Mg      29.35801953       2.09700139      39.47602513
Mg      31.45502092       0.00000000      39.47602513
Mg      31.45502092       2.09700139      37.37902373
Mg      25.16401674       4.19400279      37.37902373
Mg      25.16401674       6.29100419      39.47602513
Mg      27.26101814       4.19400279      39.47602513
Mg      27.26101814       6.29100419      37.37902373
Mg      29.35801953       4.19400279      37.37902373
Mg      29.35801953       6.29100419      39.47602513
Mg      31.45502092       4.19400279      39.47602513
Mg      31.45502092       6.29100419      37.37902373
Mg      16.77601116       8.38800558      33.18502094
Mg      16.77601116      10.48500697      35.28202234
Mg      18.87301255       8.38800558      35.28202234
Mg      18.87301255      10.48500697      33.18502094
Mg      20.97001395       8.38800558      33.18502094
Mg      20.97001395      10.48500697      35.28202234
Mg      23.06701534       8.38800558      35.28202234
Mg      23.06701534      10.48500697      33.18502094
Mg      16.77601116      12.58200837      33.18502094
Mg      16.77601116      14.67900976      35.28202234
Mg      18.87301255      12.58200837      35.28202234
Mg      18.87301255      14.67900976      33.18502094
Mg      20.97001395      12.58200837      33.18502094
Mg      20.97001395      14.67900976      35.28202234
Mg      23.06701534      12.58200837      35.28202234
Mg      23.06701534      14.67900976      33.18502094
Mg      16.77601116       8.38800558      37.37902373
Mg      16.77601116      10.48500697      39.47602513
Mg      18.87301255       8.38800558      39.47602513
Mg      18.87301255      10.48500697      37.37902373
Mg      20.97001395       8.38800558      37.37902373
Mg      20.97001395      10.48500697      39.47602513
Mg      23.06701534       8.38800558      39.47602513
Mg      23.06701534      10.48500697      37.37902373
Mg      16.77601116      12.58200837      37.37902373
Mg      16.77601116      14.67900976      39.47602513
Mg      18.87301255      12.58200837      39.47602513
Mg      18.87301255      14.67900976      37.37902373
Mg      20.97001395      12.58200837      37.37902373
Mg      20.97001395      14.67900976      39.47602513
Mg      23.06701534      12.58200837      39.47602513
Mg      23.06701534      14.67900976      37.37902373
Mg      25.16401674       8.38800558      33.18502094
Mg      25.16401674      10.48500697      35.28202234
Mg      27.26101814       8.38800558      35.28202234
Mg      27.26101814      10.48500697      33.18502094
Mg      29.35801953       8.38800558      33.18502094
Mg      29.35801953      10.48500697      35.28202234
Mg      31.45502092       8.38800558      35.28202234
Mg      31.45502092      10.48500697      33.18502094
Mg      25.16401674      12.58200837      33.18502094
Mg      25.16401674      14.67900976      35.28202234
Mg      27.26101814      12.58200837      35.28202234
Mg      27.26101814      14.67900976      33.18502094
Mg      29.35801953      12.58200837      33.18502094
Mg      29.35801953      14.67900976      35.28202234
Mg      31.45502092      12.58200837      35.28202234
Mg      31.45502092      14.67900976      33.18502094
Mg      25.16401674       8.38800558      37.37902373
Mg      25.16401674      10.48500697      39.47602513
Mg      27.26101814       8.38800558      39.47602513
Mg      27.26101814      10.48500697      37.37902373
Mg      29.35801953       8.38800558      37.37902373
Mg      29.35801953      10.48500697      39.47602513
Mg      31.45502092       8.38800558      39.47602513
Mg      31.45502092      10.48500697      37.37902373
Mg      25.16401674      12.58200837      37.37902373
Mg      25.16401674      14.67900976      39.47602513
Mg      27.26101814      12.58200837      39.47602513
Mg      27.26101814      14.67900976      37.37902373
Mg      29.35801953      12.58200837      37.37902373
Mg      29.35801953      14.67900976      39.47602513
Mg      31.45502092      12.58200837      39.47602513
Mg      31.45502092      14.67900976      37.37902373
Mg      16.77601116       0.00000000      41.57302652
Mg      16.77601116       2.09700139      43.67002792
Mg      18.87301255       0.00000000      43.67002792
Mg      18.87301255       2.09700139      41.57302652
Mg      20.97001395       0.00000000      41.57302652
Mg      20.97001395       2.09700139      43.67002792
Mg      23.06701534       0.00000000      43.67002792
Mg      23.06701534       2.09700139      41.57302652
Mg      16.77601116       4.19400279      41.57302652
Mg      16.77601116       6.29100419      43.67002792
Mg      18.87301255       4.19400279      43.67002792
Mg      18.87301255       6.29100419      41.57302652
Mg      20.97001395       4.19400279      41.57302652
Mg      20.97001395       6.29100419      43.67002792
Mg      23.06701534       4.19400279      43.67002792
Mg      23.06701534       6.29100419      41.57302652
Mg      16.77601116       0.00000000      45.76702931
Mg      16.77601116       2.09700139      47.86403071
Mg      18.87301255       0.00000000      47.86403071
Mg      18.87301255       2.09700139      45.76702931
Mg      20.97001395       0.00000000      45.76702931
Mg      20.97001395       2.09700139      47.86403071
Mg      23.06701534       0.00000000      47.86403071
Mg      23.06701534       2.09700139      45.76702931
Mg      16.77601116       4.19400279      45.76702931
Mg      16.77601116       6.29100419      47.86403071
Mg      18.87301255       4.19400279      47.86403071
Mg      18.87301255       6.29100419      45.76702931
Mg      20.97001395       4.19400279      45.76702931
Mg      20.97001395       6.29100419      47.86403071
Mg      23.06701534       4.19400279      47.86403071
Mg      23.06701534       6.29100419      45.76702931
Mg      25.16401674       0.00000000      41.57302652
Mg      25.16401674       2.09700139      43.67002792
Mg      27.26101814       0.00000000      43.67002792
Mg      27.26101814       2.09700139      41.57302652
Mg      29.35801953       0.00000000      41.57302652
Mg      29.35801953       2.09700139      43.67002792
Mg      31.45502092       0.00000000      43.67002792
Mg      31.45502092       2.09700139      41.57302652
Mg      25.16401674       4.19400279      41.57302652
Mg      25.16401674       6.29100419      43.67002792
Mg      27.26101814       4.19400279      43.67002792
Mg      27.26101814       6.29100419      41.57302652
Mg      29.35801953       4.19400279      41.57302652
Mg      29.35801953       6.29100419      43.67002792
Mg      31.45502092       4.19400279      43.67002792
Mg      31.45502092       6.29100419      41.57302652
Mg      25.16401674       0.00000000      45.76702931
Mg      25.16401674       2.09700139      47.86403071
Mg      27.26101814       0.00000000      47.86403071
Mg      27.26101814       2.09700139      45.76702931
Mg      29.35801953       0.00000000      45.76702931
Mg      29.35801953       2.09700139      47.86403071
Mg      31.45502092       0.00000000      47.86403071
Mg      31.45502092       2.09700139      45.76702931
Mg      25.16401674       4.19400279      45.76702931
Mg      25.16401674       6.29100419      47.86403071
Mg      27.26101814       4.19400279      47.86403071
Mg      27.26101814       6.29100419      45.76702931
Mg      29.35801953       4.19400279      45.76702931
Mg      29.35801953       6.29100419      47.86403071
Mg      31.45502092       4.19400279      47.86403071
Mg      31.45502092       6.29100419      45.76702931
Mg      16.77601116       8.38800558      41.57302652
Mg      16.77601116      10.48500697      43.67002792
Mg      18.87301255       8.38800558      43.67002792
Mg      18.87301255      10.48500697      41.57302652
Mg      20.97001395       8.38800558      41.57302652
Mg      20.97001395      10.48500697      43.67002792
Mg      23.06701534       8.38800558      43.67002792
Mg      23.06701534      10.48500697      41.57302652
Mg      16.77601116      12.58200837      41.57302652
Mg      16.77601116      14.67900976      43.67002792
Mg      18.87301255      12.58200837      43.67002792
Mg      18.87301255      14.67900976      41.57302652
Mg      20.97001395      12.58200837      41.57302652
Mg      20.97001395      14.67900976      43.67002792
Mg      23.06701534      12.58200837      43.67002792
Mg      23.06701534      14.67900976      41.57302652
Mg      16.77601116       8.38800558      45.76702931
Mg      16.77601116      10.48500697      47.86403071
Mg      18.87301255       8.38800558      47.86403071
Mg      18.87301255      10.48500697      45.76702931
Mg      20.97001395       8.38800558      45.76702931
Mg      20.97001395      10.48500697      47.86403071
Mg      23.06701534       8.38800558      47.86403071
Mg      23.06701534      10.48500697      45.76702931
Mg      16.77601116      12.58200837      45.76702931
Mg      16.77601116      14.67900976      47.86403071
Mg      18.87301255      12.58200837      47.86403071
Mg      18.87301255      14.67900976      45.76702931
Mg      20.97001395      12.58200837      45.76702931
Mg      20.97001395      14.67900976      47.86403071
Mg      23.06701534      12.58200837      47.86403071
Mg      23.06701534      14.67900976      45.76702931
Mg      25.16401674       8.38800558      41.57302652
Mg      25.16401674      10.48500697      43.67002792
Mg      27.26101814       8.38800558      43.67002792
Mg      27.26101814      10.48500697      41.57302652
Mg      29.35801953       8.38800558      41.57302652
Mg      29.35801953      10.48500697      43.67002792
Mg      31.45502092       8.38800558      43.67002792
Mg      31.45502092      10.48500697      41.57302652
Mg      25.16401674      12.58200837      41.57302652
Mg      25.16401674      14.67900976      43.67002792
Mg      27.26101814      12.58200837      43.67002792
Mg      27.26101814      14.67900976      41.57302652
Mg      29.35801953      12.58200837      41.57302652
Mg      29.35801953      14.67900976      43.67002792
Mg      31.45502092      12.58200837      43.67002792
Mg      31.45502092      14.67900976      41.57302652
Mg      25.16401674       8.38800558      45.76702931
Mg      25.16401674      10.48500697      47.86403071
Mg      27.26101814       8.38800558      47.86403071
Mg      27.26101814      10.48500697      45.76702931
Mg      29.35801953       8.38800558      45.76702931
Mg      29.35801953      10.48500697      47.86403071
Mg      31.45502092       8.38800558      47.86403071
Mg      31.45502092      10.48500697      45.76702931
Mg      25.16401674      12.58200837      45.76702931
Mg      25.16401674      14.67900976      47.86403071
Mg      27.26101814      12.58200837      47.86403071
Mg      27.26101814      14.67900976      45.76702931
Mg      29.35801953      12.58200837      45.76702931
Mg      29.35801953      14.67900976      47.86403071
Mg      31.45502092      12.58200837      47.86403071
Mg      31.45502092      14.67900976      45.76702931
Mg       0.00000000      16.77601116      33.18502094
Mg       0.00000000      18.87301255      35.28202234
Mg       2.09700139      16.77601116      35.28202234
Mg       2.09700139      18.87301255      33.18502094
Mg       4.19400279      16.77601116      33.18502094
Mg       4.19400279      18.87301255      35.28202234
Mg       6.29100419      16.77601116      35.28202234
Mg       6.29100419      18.87301255      33.18502094
Mg       0.00000000      20.97001395      33.18502094
Mg       0.00000000      23.06701534      35.28202234
Mg       2.09700139      20.97001395      35.28202234
Mg       2.09700139      23.06701534      33.18502094
Mg       4.19400279      20.97001395      33.18502094
Mg       4.19400279      23.06701534      35.28202234
Mg       6.29100419      20.97001395      35.28202234
Mg       6.29100419      23.06701534      33.18502094
Mg       0.00000000      16.77601116      37.37902373
Mg       0.00000000      18.87301255      39.47602513
Mg       2.09700139      16.77601116      39.47602513
Mg       2.09700139      18.87301255      37.37902373
Mg       4.19400279      16.77601116      37.37902373
Mg       4.19400279      18.87301255      39.47602513
Mg       6.29100419      16.77601116      39.47602513
Mg       6.29100419      18.87301255      37.37902373
Mg       0.00000000      20.97001395      37.37902373
Mg       0.00000000      23.06701534      39.47602513
Mg       2.09700139      20.97001395      39.47602513
Mg       2.09700139      23.06701534      37.37902373
Mg       4.19400279      20.97001395      37.37902373
Mg       4.19400279      23.06701534      39.47602513
Mg       6.29100419      20.97001395      39.47602513
Mg       6.29100419      23.06701534      37.37902373
Mg       8.38800558      16.77601116      33.18502094
Mg       8.38800558      18.87301255      35.28202234
Mg      10.48500697      16.77601116      35.28202234
Mg      10.48500697      18.87301255      33.18502094
Mg      12.58200837      16.77601116      33.18502094
Mg      12.58200837      18.87301255      35.28202234
Mg      14.67900976      16.77601116      35.28202234
Mg      14.67900976      18.87301255      33.18502094
Mg       8.38800558      20.97001395      33.18502094
Mg       8.38800558      23.06701534      35.28202234
Mg      10.48500697      20.97001395      35.28202234
Mg      10.48500697      23.06701534      33.18502094
Mg      12.58200837      20.97001395      33.18502094
Mg      12.58200837      23.06701534      35.28202234
Mg      14.67900976      20.97001395      35.28202234
Mg      14.67900976      23.06701534      33.18502094
Mg       8.38800558      16.77601116      37.37902373
Mg       8.38800558      18.87301255      39.47602513
Mg      10.48500697      16.77601116      39.47602513
Mg      10.48500697      18.87301255      37.37902373
Mg      12.58200837      16.77601116      37.37902373
Mg      12.58200837      18.87301255      39.47602513
Mg      14.67900976      16.77601116      39.47602513
Mg      14.67900976      18.87301255      37.37902373
Mg       8.38800558      20.97001395      37.37902373
Mg       8.38800558      23.06701534      39.47602513
Mg      10.48500697      20.97001395      39.47602513
Mg      10.48500697      23.06701534      37.37902373
Mg      12.58200837      20.97001395      37.37902373
Mg      12.58200837      23.06701534      39.47602513
Mg      14.67900976      20.97001395      39.47602513
Mg      14.67900976      23.06701534      37.37902373
Mg       0.00000000      25.16401674      33.18502094
Mg       0.00000000      27.26101814      35.28202234
Mg       2.09700139      25.16401674      35.28202234
Mg       2.09700139      27.26101814      33.18502094
Mg       4.19400279      25.16401674      33.18502094
Mg       4.19400279      27.26101814      35.28202234
Mg       6.29100419      25.16401674      35.28202234
Mg       6.29100419      27.26101814      33.18502094
Mg       0.00000000      29.35801953      33.18502094
Mg       0.00000000      31.45502092      35.28202234
Mg       2.09700139      29.35801953      35.28202234
Mg       2.09700139      31.45502092      33.18502094
Mg       4.19400279      29.35801953      33.18502094
Mg       4.19400279      31.45502092      35.28202234
Mg       6.29100419      29.35801953      35.28202234
Mg       6.29100419      31.45502092      33.18502094
Mg       0.00000000      25.16401674      37.37902373
Mg       0.00000000      27.26101814      39.47602513
Mg       2.09700139      25.16401674      39.47602513
Mg       2.09700139      27.26101814      37.37902373
Mg       4.19400279      25.16401674      37.37902373
Mg       4.19400279      27.26101814      39.47602513
Mg       6.29100419      25.16401674      39.47602513
Mg       6.29100419      27.26101814      37.37902373
Mg       0.00000000      29.35801953      37.37902373
Mg       0.00000000      31.45502092      39.47602513
Mg       2.09700139      29.35801953      39.47602513
Mg       2.09700139      31.45502092      37.37902373
Mg       4.19400279      29.35801953      37.37902373
Mg       4.19400279      31.45502092      39.47602513
Mg       6.29100419      29.35801953      39.47602513
Mg       6.29100419      31.45502092      37.37902373
Mg       8.38800558      25.16401674      33.18502094
Mg       8.38800558      27.26101814      35.28202234
Mg      10.48500697      25.16401674      35.28202234
Mg      10.48500697      27.26101814      33.18502094
Mg      12.58200837      25.16401674      33.18502094
Mg      12.58200837      27.26101814      35.28202234
Mg      14.67900976      25.16401674      35.28202234
Mg      14.67900976      27.26101814      33.18502094
Mg       8.38800558      29.35801953      33.18502094
Mg       8.38800558      31.45502092      35.28202234
Mg      10.48500697      29.35801953      35.28202234
Mg      10.48500697      31.45502092      33.18502094
Mg      12.58200837      29.35801953      33.18502094
Mg      12.58200837      31.45502092      35.28202234
Mg      14.67900976      29.35801953      35.28202234
Mg      14.67900976      31.45502092      33.18502094
Mg       8.38800558      25.16401674      37.37902373
Mg       8.38800558      27.26101814      39.47602513
Mg      10.48500697      25.16401674      39.47602513
Mg      10.48500697      27.26101814      37.37902373
Mg      12.58200837      25.16401674      37.37902373
Mg      12.58200837      27.26101814      39.47602513
Mg      14.67900976      25.16401674      39.47602513
Mg      14.67900976      27.26101814      37.37902373
Mg       8.38800558      29.35801953      37.37902373
Mg       8.38800558      31.45502092      39.47602513
Mg      10.48500697      29.35801953      39.47602513
Mg      10.48500697      31.45502092      37.37902373
Mg      12.58200837      29.35801953      37.37902373
Mg      12.58200837      31.45502092      39.47602513
Mg      14.67900976      29.35801953      39.47602513
Mg      14.67900976      31.45502092      37.37902373
Mg       0.00000000      16.77601116      41.57302652
Mg       0.00000000      18.87301255      43.67002792
Mg       2.09700139      16.77601116      43.67002792
Mg       2.09700139      18.87301255      41.57302652
Mg       4.19400279      16.77601116      41.57302652
Mg       4.19400279      18.87301255      43.67002792
Mg       6.29100419      16.77601116      43.67002792
Mg       6.29100419      18.87301255      41.57302652
Mg       0.00000000      20.97001395      41.57302652
Mg       0.00000000      23.06701534      43.67002792
Mg       2.09700139      20.97001395      43.67002792
Mg       2.09700139      23.06701534      41.57302652
Mg       4.19400279      20.97001395      41.57302652
Mg       4.19400279      23.06701534      43.67002792
Mg       6.29100419      20.97001395      43.67002792
Mg       6.29100419      23.06701534      41.57302652
Mg       0.00000000      16.77601116      45.76702931
Mg       0.00000000      18.87301255      47.86403071
Mg       2.09700139      16.77601116      47.86403071
Mg       2.09700139      18.87301255      45.76702931
Mg       4.19400279      16.77601116      45.76702931
Mg       4.19400279      18.87301255      47.86403071
Mg       6.29100419      16.77601116      47.86403071
Mg       6.29100419      18.87301255      45.76702931
Mg       0.00000000      20.97001395      45.76702931
Mg       0.00000000      23.06701534      47.86403071
Mg       2.09700139      20.97001395      47.86403071
Mg       2.09700139      23.06701534      45.76702931
Mg       4.19400279      20.97001395      45.76702931
Mg       4.19400279      23.06701534      47.86403071
Mg       6.29100419      20.97001395      47.86403071
Mg       6.29100419      23.06701534      45.76702931
Mg       8.38800558      16.77601116      41.57302652
Mg       8.38800558      18.87301255      43.67002792
Mg      10.48500697      16.77601116      43.67002792
Mg      10.48500697      18.87301255      41.57302652
Mg      12.58200837      16.77601116      41.57302652
Mg      12.58200837      18.87301255      43.67002792
Mg      14.67900976      16.77601116      43.67002792
Mg      14.67900976      18.87301255      41.57302652
Mg       8.38800558      20.97001395      41.57302652
Mg       8.38800558      23.06701534      43.67002792
Mg      10.48500697      20.97001395      43.67002792
Mg      10.48500697      23.06701534      41.57302652
Mg      12.58200837      20.97001395      41.57302652
Mg      12.58200837      23.06701534      43.67002792
Mg      14.67900976      20.97001395      43.67002792
Mg      14.67900976      23.06701534      41.57302652
Mg       8.38800558      16.77601116      45.76702931
Mg       8.38800558      18.87301255      47.86403071
Mg      10.48500697      16.77601116      47.86403071
Mg      10.48500697      18.87301255      45.76702931
Mg      12.58200837      16.77601116      45.76702931
Mg      12.58200837      18.87301255      47.86403071
Mg      14.67900976      16.77601116      47.86403071
Mg      14.67900976      18.87301255      45.76702931
Mg       8.38800558      20.97001395      45.76702931
Mg       8.38800558      23.06701534      47.86403071
Mg      10.48500697      20.97001395      47.86403071
Mg      10.48500697      23.06701534      45.76702931
Mg      12.58200837      20.97001395      45.76702931
Mg      12.58200837      23.06701534      47.86403071
Mg      14.67900976      20.97001395      47.86403071
Mg      14.67900976      23.06701534      45.76702931
Mg       0.00000000      25.16401674      41.57302652
Mg       0.00000000      27.26101814      43.67002792
Mg       2.09700139      25.16401674      43.67002792
Mg       2.09700139      27.26101814      41.57302652
Mg       4.19400279      25.16401674      41.57302652
Mg       4.19400279      27.26101814      43.67002792
Mg       6.29100419      25.16401674      43.67002792
Mg       6.29100419      27.26101814      41.57302652
Mg       0.00000000      29.35801953      41.57302652
Mg       0.00000000      31.45502092      43.67002792
Mg       2.09700139      29.35801953      43.67002792
Mg       2.09700139      31.45502092      41.57302652
Mg       4.19400279      29.35801953      41.57302652
Mg       4.19400279      31.45502092      43.67002792
Mg       6.29100419      29.35801953      43.67002792
Mg       6.29100419      31.45502092      41.57302652
Mg       0.00000000      25.16401674      45.76702931
Mg       0.00000000      27.26101814      47.86403071
Mg       2.09700139      25.16401674      47.86403071
Mg       2.09700139      27.26101814      45.76702931
Mg       4.19400279      25.16401674      45.76702931
Mg       4.19400279      27.26101814      47.86403071
Mg       6.29100419      25.16401674      47.86403071
Mg       6.29100419      27.26101814      45.76702931
Mg       0.00000000      29.35801953      45.76702931
Mg       0.00000000      31.45502092      47.86403071
Mg       2.09700139      29.35801953      47.86403071
Mg       2.09700139      31.45502092      45.76702931
Mg       4.19400279      29.35801953      45.76702931
Mg       4.19400279      31.45502092      47.86403071
Mg       6.29100419      29.35801953      47.86403071
Mg       6.29100419      31.45502092      45.76702931
Mg       8.38800558      25.16401674      41.57302652
Mg       8.38800558      27.26101814      43.67002792
Mg      10.48500697      25.16401674      43.67002792
Mg      10.48500697      27.26101814      41.57302652
Mg      12.58200837      25.16401674      41.57302652
Mg      12.58200837      27.26101814      43.67002792
Mg      14.67900976      25.16401674      43.67002792
Mg      14.67900976      27.26101814      41.57302652
Mg       8.38800558      29.35801953      41.57302652
Mg       8.38800558      31.45502092      43.67002792
Mg      10.48500697      29.35801953      43.67002792
Mg      10.48500697      31.45502092      41.57302652
Mg      12.58200837      29.35801953      41.57302652
Mg      12.58200837      31.45502092      43.67002792
Mg      14.67900976      29.35801953      43.67002792
Mg      14.67900976      31.45502092      41.57302652
Mg       8.38800558      25.16401674      45.76702931
Mg       8.38800558      27.26101814      47.86403071
Mg      10.48500697      25.16401674      47.86403071
Mg      10.48500697      27.26101814      45.76702931
Mg      12.58200837      25.16401674      45.76702931
Mg      12.58200837      27.26101814      47.86403071
Mg      14.67900976      25.16401674      47.86403071
Mg      14.67900976      27.26101814      45.76702931
Mg       8.38800558      29.35801953      45.76702931
Mg       8.38800558      31.45502092      47.86403071
Mg      10.48500697      29.35801953      47.86403071
Mg      10.48500697      31.45502092      45.76702931
Mg      12.58200837      29.35801953      45.76702931
Mg      12.58200837      31.45502092      47.86403071
Mg      14.67900976      29.35801953      47.86403071
Mg      14.67900976      31.45502092      45.76702931
Mg      16.77601116      16.77601116      33.18502094
Mg      16.77601116      18.87301255      35.28202234
Mg      18.87301255      16.77601116      35.28202234
Mg      18.87301255      18.87301255      33.18502094
Mg      20.97001395      16.77601116      33.18502094
Mg      20.97001395      18.87301255      35.28202234
Mg      23.06701534      16.77601116      35.28202234
Mg      23.06701534      18.87301255      33.18502094
Mg      16.77601116      20.97001395      33.18502094
Mg      16.77601116      23.06701534      35.28202234
Mg      18.87301255      20.97001395      35.28202234
Mg      18.87301255      23.06701534      33.18502094
Mg      20.97001395      20.97001395      33.18502094
Mg      20.97001395      23.06701534      35.28202234
Mg      23.06701534      20.97001395      35.28202234
Mg      23.06701534      23.06701534      33.18502094
Mg      16.77601116      16.77601116      37.37902373
Mg      16.77601116      18.87301255      39.47602513
Mg      18.87301255      16.77601116      39.47602513
Mg      18.87301255      18.87301255      37.37902373
Mg      20.97001395      16.77601116      37.37902373
Mg      20.97001395      18.87301255      39.47602513
Mg      23.06701534      16.77601116      39.47602513
Mg      23.06701534      18.87301255      37.37902373
Mg      16.77601116      20.97001395      37.37902373
Mg      16.77601116      23.06701534      39.47602513
Mg      18.87301255      20.97001395      39.47602513
Mg      18.87301255      23.06701534      37.37902373
Mg      20.97001395      20.97001395      37.37902373
Mg      20.97001395      23.06701534      39.47602513
Mg      23.06701534      20.97001395      39.47602513
Mg      23.06701534      23.06701534      37.37902373
Mg      25.16401674      16.77601116      33.18502094
Mg      25.16401674      18.87301255      35.28202234
Mg      27.26101814      16.77601116      35.28202234
Mg      27.26101814      18.87301255      33.18502094
Mg      29.35801953      16.77601116      33.18502094
Mg      29.35801953      18.87301255      35.28202234
Mg      31.45502092      16.77601116      35.28202234
Mg      31.45502092      18.87301255      33.18502094
Mg      25.16401674      20.97001395      33.18502094
Mg      25.16401674      23.06701534      35.28202234
Mg      27.26101814      20.97001395      35.28202234
Mg      27.26101814      23.06701534      33.18502094
Mg      29.35801953      20.97001395      33.18502094
Mg      29.35801953      23.06701534      35.28202234
Mg      31.45502092      20.97001395      35.28202234
Mg      31.45502092      23.06701534      33.18502094
Mg      25.16401674      16.77601116      37.37902373
Mg      25.16401674      18.87301255      39.47602513
Mg      27.26101814      16.77601116      39.47602513
Mg      27.26101814      18.87301255      37.37902373
Mg      29.35801953      16.77601116      37.37902373
Mg      29.35801953      18.87301255      39.47602513
Mg      31.45502092      16.77601116      39.47602513
Mg      31.45502092      18.87301255      37.37902373
Mg      25.16401674      20.97001395      37.37902373
Mg      25.16401674      23.06701534      39.47602513
Mg      27.26101814      20.97001395      39.47602513
Mg      27.26101814      23.06701534      37.37902373
Mg      29.35801953      20.97001395      37.37902373
Mg      29.35801953      23.06701534      39.47602513
Mg      31.45502092      20.97001395      39.47602513
Mg      31.45502092      23.06701534      37.37902373
Mg      16.77601116      25.16401674      33.18502094
Mg      16.77601116      27.26101814      35.28202234
Mg      18.87301255      25.16401674      35.28202234
Mg      18.87301255      27.26101814      33.18502094
Mg      20.97001395      25.16401674      33.18502094
Mg      20.97001395      27.26101814      35.28202234
Mg      23.06701534      25.16401674      35.28202234
Mg      23.06701534      27.26101814      33.18502094
Mg      16.77601116      29.35801953      33.18502094
Mg      16.77601116      31.45502092      35.28202234
Mg      18.87301255      29.35801953      35.28202234
Mg      18.87301255      31.45502092      33.18502094
Mg      20.97001395      29.35801953      33.18502094
Mg      20.97001395      31.45502092      35.28202234
Mg      23.06701534      29.35801953      35.28202234
Mg      23.06701534      31.45502092      33.18502094
Mg      16.77601116      25.16401674      37.37902373
Mg      16.77601116      27.26101814      39.47602513
Mg      18.87301255      25.16401674      39.47602513
Mg      18.87301255      27.26101814      37.37902373
Mg      20.97001395      25.16401674      37.37902373
Mg      20.97001395      27.26101814      39.47602513
Mg      23.06701534      25.16401674      39.47602513
Mg      23.06701534      27.26101814      37.37902373
Mg      16.77601116      29.35801953      37.37902373
Mg      16.77601116      31.45502092      39.47602513
Mg      18.87301255      29.35801953      39.47602513
Mg      18.87301255      31.45502092      37.37902373
Mg      20.97001395      29.35801953      37.37902373
Mg      20.97001395      31.45502092      39.47602513
Mg      23.06701534      29.35801953      39.47602513
Mg      23.06701534      31.45502092      37.37902373
Mg      25.16401674      25.16401674      33.18502094
Mg      25.16401674      27.26101814      35.28202234
Mg      27.26101814      25.16401674      35.28202234
Mg      27.26101814      27.26101814      33.18502094
Mg      29.35801953      25.16401674      33.18502094
Mg      29.35801953      27.26101814      35.28202234
Mg      31.45502092      25.16401674      35.28202234
Mg      31.45502092      27.26101814      33.18502094
Mg      25.16401674      29.35801953      33.18502094
Mg      25.16401674      31.45502092      35.28202234
Mg      27.26101814      29.35801953      35.28202234
Mg      27.26101814      31.45502092      33.18502094
Mg      29.35801953      29.35801953      33.18502094
Mg      29.35801953      31.45502092      35.28202234
Mg      31.45502092      29.35801953      35.28202234
Mg      31.45502092      31.45502092      33.18502094
Mg      25.16401674      25.16401674      37.37902373
Mg      25.16401674      27.26101814      39.47602513
Mg      27.26101814      25.16401674      39.47602513
Mg      27.26101814      27.26101814      37.37902373
Mg      29.35801953      25.16401674      37.37902373
Mg      29.35801953      27.26101814      39.47602513
Mg      31.45502092      25.16401674      39.47602513
Mg      31.45502092      27.26101814      37.37902373
Mg      25.16401674      29.35801953      37.37902373
Mg      25.16401674      31.45502092      39.47602513
Mg      27.26101814      29.35801953      39.47602513
Mg      27.26101814      31.45502092      37.37902373
Mg      29.35801953      29.35801953      37.37902373
Mg      29.35801953      31.45502092      39.47602513
Mg      31.45502092      29.35801953      39.47602513
Mg      31.45502092      31.45502092      37.37902373
Mg      16.77601116      16.77601116      41.57302652
Mg      16.77601116      18.87301255      43.67002792
Mg      18.87301255      16.77601116      43.67002792
Mg      18.87301255      18.87301255      41.57302652
Mg      20.97001395      16.77601116      41.57302652
Mg      20.97001395      18.87301255      43.67002792
Mg      23.06701534      16.77601116      43.67002792
Mg      23.06701534      18.87301255      41.57302652
Mg      16.77601116      20.97001395      41.57302652
Mg      16.77601116      23.06701534      43.67002792
Mg      18.87301255      20.97001395      43.67002792
Mg      18.87301255      23.06701534      41.57302652
Mg      20.97001395      20.97001395      41.57302652
Mg      20.97001395      23.06701534      43.67002792
Mg      23.06701534      20.97001395      43.67002792
Mg      23.06701534      23.06701534      41.57302652
Mg      16.77601116      16.77601116      45.76702931
Mg      16.77601116      18.87301255      47.86403071
Mg      18.87301255      16.77601116      47.86403071
Mg      18.87301255      18.87301255      45.76702931
Mg      20.97001395      16.77601116      45.76702931
Mg      20.97001395      18.87301255      47.86403071
Mg      23.06701534      16.77601116      47.86403071
Mg      23.06701534      18.87301255      45.76702931
Mg      16.77601116      20.97001395      45.76702931
Mg      16.77601116      23.06701534      47.86403071
Mg      18.87301255      20.97001395      47.86403071
Mg      18.87301255      23.06701534      45.76702931
Mg      20.97001395      20.97001395      45.76702931
Mg      20.97001395      23.06701534      47.86403071
Mg      23.06701534      20.97001395      47.86403071
Mg      23.06701534      23.06701534      45.76702931
Mg      25.16401674      16.77601116      41.57302652
Mg      25.16401674      18.87301255      43.67002792
Mg      27.26101814      16.77601116      43.67002792
Mg      27.26101814      18.87301255      41.57302652
Mg      29.35801953      16.77601116      41.57302652
Mg      29.35801953      18.87301255      43.67002792
Mg      31.45502092      16.77601116      43.67002792
Mg      31.45502092      18.87301255      41.57302652
Mg      25.16401674      20.97001395      41.57302652
Mg      25.16401674      23.06701534      43.67002792
Mg      27.26101814      20.97001395      43.67002792
Mg      27.26101814      23.06701534      41.57302652
Mg      29.35801953      20.97001395      41.57302652
Mg      29.35801953      23.06701534      43.67002792
Mg      31.45502092      20.97001395      43.67002792
Mg      31.45502092      23.06701534      41.57302652
Mg      25.16401674      16.77601116      45.76702931
Mg      25.16401674      18.87301255      47.86403071
Mg      27.26101814      16.77601116      47.86403071
Mg      27.26101814      18.87301255      45.76702931
Mg      29.35801953      16.77601116      45.76702931
Mg      29.35801953      18.87301255      47.86403071
Mg      31.45502092      16.77601116      47.86403071
Mg      31.45502092      18.87301255      45.76702931
Mg      25.16401674      20.97001395      45.76702931
Mg      25.16401674      23.06701534      47.86403071
Mg      27.26101814      20.97001395      47.86403071
Mg      27.26101814      23.06701534      45.76702931
Mg      29.35801953      20.97001395      45.76702931
Mg      29.35801953      23.06701534      47.86403071
Mg      31.45502092      20.97001395      47.86403071
Mg      31.45502092      23.06701534      45.76702931
Mg      16.77601116      25.16401674      41.57302652
Mg      16.77601116      27.26101814      43.67002792
Mg      18.87301255      25.16401674      43.67002792
Mg      18.87301255      27.26101814      41.57302652
Mg      20.97001395      25.16401674      41.57302652
Mg      20.97001395      27.26101814      43.67002792
Mg      23.06701534      25.16401674      43.67002792
Mg      23.06701534      27.26101814      41.57302652
Mg      16.77601116      29.35801953      41.57302652
Mg      16.77601116      31.45502092      43.67002792
Mg      18.87301255      29.35801953      43.67002792
Mg      18.87301255      31.45502092      41.57302652
Mg      20.97001395      29.35801953      41.57302652
Mg      20.97001395      31.45502092      43.67002792
Mg      23.06701534      29.35801953      43.67002792
Mg      23.06701534      31.45502092      41.57302652
Mg      16.77601116      25.16401674      45.76702931
Mg      16.77601116      27.26101814      47.86403071
Mg      18.87301255      25.16401674      47.86403071
Mg      18.87301255      27.26101814      45.76702931
Mg      20.97001395      25.16401674      45.76702931
Mg      20.97001395      27.26101814      47.86403071
Mg      23.06701534      25.16401674      47.86403071
Mg      23.06701534      27.26101814      45.76702931
Mg      16.77601116      29.35801953      45.76702931
Mg      16.77601116      31.45502092      47.86403071
Mg      18.87301255      29.35801953      47.86403071
Mg      18.87301255      31.45502092      45.76702931
Mg      20.97001395      29.35801953      45.76702931
Mg      20.97001395      31.45502092      47.86403071
Mg      23.06701534      29.35801953      47.86403071
Mg      23.06701534      31.45502092      45.76702931
Mg      25.16401674      25.16401674      41.57302652
Mg      25.16401674      27.26101814      43.67002792
Mg      27.26101814      25.16401674      43.67002792
Mg      27.26101814      27.26101814      41.57302652
Mg      29.35801953      25.16401674      41.57302652
Mg      29.35801953      27.26101814      43.67002792
Mg      31.45502092      25.16401674      43.67002792
Mg      31.45502092      27.26101814      41.57302652
Mg      25.16401674      29.35801953      41.57302652
Mg      25.16401674      31.45502092      43.67002792
Mg      27.26101814      29.35801953      43.67002792
Mg      27.26101814      31.45502092      41.57302652
Mg      29.35801953      29.35801953      41.57302652
Mg      29.35801953      31.45502092      43.67002792
Mg      31.45502092      29.35801953      43.67002792
Mg      31.45502092      31.45502092      41.57302652
Mg      25.16401674      25.16401674      45.76702931
Mg      25.16401674      27.26101814      47.86403071
Mg      27.26101814      25.16401674      47.86403071
Mg      27.26101814      27.26101814      45.76702931
Mg      29.35801953      25.16401674      45.76702931
Mg      29.35801953      27.26101814      47.86403071
Mg      31.45502092      25.16401674      47.86403071
Mg      31.45502092      27.26101814      45.76702931
Mg      25.16401674      29.35801953      45.76702931
Mg      25.16401674      31.45502092      47.86403071
Mg      27.26101814      29.35801953      47.86403071
Mg      27.26101814      31.45502092      45.76702931
Mg      29.35801953      29.35801953      45.76702931
Mg      29.35801953      31.45502092      47.86403071
Mg      31.45502092      29.35801953      47.86403071
Mg      31.45502092      31.45502092      45.76702931
O        0.00000000       0.00000000       1.73000002
O        0.00000000       2.09700139      49.96103210
O        2.09700139       0.00000000      49.96103210
O        2.09700139       2.09700139       1.73000002
O        4.19400279       0.00000000       1.73000002
O        4.19400279       2.09700139      49.96103210
O        6.29100419       0.00000000      49.96103210
O        6.29100419       2.09700139       1.73000002
O        0.00000000       4.19400279       1.73000002
O        0.00000000       6.29100419      49.96103210
O        2.09700139       4.19400279      49.96103210
O        2.09700139       6.29100419       1.73000002
O        4.19400279       4.19400279       1.73000002
O        4.19400279       6.29100419      49.96103210
O        6.29100419       4.19400279      49.96103210
O        6.29100419       6.29100419       1.73000002
O        0.00000000       0.00000000       5.92400281
O        0.00000000       2.09700139       3.82700141
O        2.09700139       0.00000000       3.82700141
O        2.09700139       2.09700139       5.92400281
O        4.19400279       0.00000000       5.92400281
O        4.19400279       2.09700139       3.82700141
O        6.29100419       0.00000000       3.82700141
O        6.29100419       2.09700139       5.92400281
O        0.00000000       4.19400279       5.92400281
O        0.00000000       6.29100419       3.82700141
O        2.09700139       4.19400279       3.82700141
O        2.09700139       6.29100419       5.92400281
O        4.19400279       4.19400279       5.92400281
O        4.19400279       6.29100419       3.82700141
O        6.29100419       4.19400279       3.82700141
O        6.29100419       6.29100419       5.92400281
O        8.38800558       0.00000000       1.73000002
O        8.38800558       2.09700139      49.96103210
O       10.48500697       0.00000000      49.96103210
O       10.48500697       2.09700139       1.73000002
O       12.58200837       0.00000000       1.73000002
O       12.58200837       2.09700139      49.96103210
O       14.67900976       0.00000000      49.96103210
O       14.67900976       2.09700139       1.73000002
O        8.38800558       4.19400279       1.73000002
O        8.38800558       6.29100419      49.96103210
O       10.48500697       4.19400279      49.96103210
O       10.48500697       6.29100419       1.73000002
O       12.58200837       4.19400279       1.73000002
O       12.58200837       6.29100419      49.96103210
O       14.67900976       4.19400279      49.96103210
O       14.67900976       6.29100419       1.73000002
O        8.38800558       0.00000000       5.92400281
O        8.38800558       2.09700139       3.82700141
O       10.48500697       0.00000000       3.82700141
O       10.48500697       2.09700139       5.92400281
O       12.58200837       0.00000000       5.92400281
O       12.58200837       2.09700139       3.82700141
O       14.67900976       0.00000000       3.82700141
O       14.67900976       2.09700139       5.92400281
O        8.38800558       4.19400279       5.92400281
O        8.38800558       6.29100419       3.82700141
O       10.48500697       4.19400279       3.82700141
O       10.48500697       6.29100419       5.92400281
O       12.58200837       4.19400279       5.92400281
O       12.58200837       6.29100419       3.82700141
O       14.67900976       4.19400279       3.82700141
O       14.67900976       6.29100419       5.92400281
O        0.00000000       8.38800558       1.73000002
O        0.00000000      10.48500697      49.96103210
O        2.09700139       8.38800558      49.96103210
O        2.09700139      10.48500697       1.73000002
O        4.19400279       8.38800558       1.73000002
O        4.19400279      10.48500697      49.96103210
O        6.29100419       8.38800558      49.96103210
O        6.29100419      10.48500697       1.73000002
O        0.00000000      12.58200837       1.73000002
O        0.00000000      14.67900976      49.96103210
O        2.09700139      12.58200837      49.96103210
O        2.09700139      14.67900976       1.73000002
O        4.19400279      12.58200837       1.73000002
O        4.19400279      14.67900976      49.96103210
O        6.29100419      12.58200837      49.96103210
O        6.29100419      14.67900976       1.73000002
O        0.00000000       8.38800558       5.92400281
O        0.00000000      10.48500697       3.82700141
O        2.09700139       8.38800558       3.82700141
O        2.09700139      10.48500697       5.92400281
O        4.19400279       8.38800558       5.92400281
O        4.19400279      10.48500697       3.82700141
O        6.29100419       8.38800558       3.82700141
O        6.29100419      10.48500697       5.92400281
O        0.00000000      12.58200837       5.92400281
O        0.00000000      14.67900976       3.82700141
O        2.09700139      12.58200837       3.82700141
O        2.09700139      14.67900976       5.92400281
O        4.19400279      12.58200837       5.92400281
O        4.19400279      14.67900976       3.82700141
O        6.29100419      12.58200837       3.82700141
O        6.29100419      14.67900976       5.92400281
O        8.38800558       8.38800558       1.73000002
O        8.38800558      10.48500697      49.96103210
O       10.48500697       8.38800558      49.96103210
O       10.48500697      10.48500697       1.73000002
O       12.58200837       8.38800558       1.73000002
O       12.58200837      10.48500697      49.96103210
O       14.67900976       8.38800558      49.96103210
O       14.67900976      10.48500697       1.73000002
O        8.38800558      12.58200837       1.73000002
O        8.38800558      14.67900976      49.96103210
O       10.48500697      12.58200837      49.96103210
O       10.48500697      14.67900976       1.73000002
O       12.58200837      12.58200837       1.73000002
O       12.58200837      14.67900976      49.96103210
O       14.67900976      12.58200837      49.96103210
O       14.67900976      14.67900976       1.73000002
O        8.38800558       8.38800558       5.92400281
O        8.38800558      10.48500697       3.82700141
O       10.48500697       8.38800558       3.82700141
O       10.48500697      10.48500697       5.92400281
O       12.58200837       8.38800558       5.92400281
O       12.58200837      10.48500697       3.82700141
O       14.67900976       8.38800558       3.82700141
O       14.67900976      10.48500697       5.92400281
O        8.38800558      12.58200837       5.92400281
O        8.38800558      14.67900976       3.82700141
O       10.48500697      12.58200837       3.82700141
O       10.48500697      14.67900976       5.92400281
O       12.58200837      12.58200837       5.92400281
O       12.58200837      14.67900976       3.82700141
O       14.67900976      12.58200837       3.82700141
O       14.67900976      14.67900976       5.92400281
O        0.00000000       0.00000000      10.11800560
O        0.00000000       2.09700139       8.02100420
O        2.09700139       0.00000000       8.02100420
O        2.09700139       2.09700139      10.11800560
O        4.19400279       0.00000000      10.11800560
O        4.19400279       2.09700139       8.02100420
O        6.29100419       0.00000000       8.02100420
O        6.29100419       2.09700139      10.11800560
O        0.00000000       4.19400279      10.11800560
O        0.00000000       6.29100419       8.02100420
O        2.09700139       4.19400279       8.02100420
O        2.09700139       6.29100419      10.11800560
O        4.19400279       4.19400279      10.11800560
O        4.19400279       6.29100419       8.02100420
O        6.29100419       4.19400279       8.02100420
O        6.29100419       6.29100419      10.11800560
O        0.00000000       0.00000000      14.31200839
O        0.00000000       2.09700139      12.21500699
O        2.09700139       0.00000000      12.21500699
O        2.09700139       2.09700139      14.31200839
O        4.19400279       0.00000000      14.31200839
O        4.19400279       2.09700139      12.21500699
O        6.29100419       0.00000000      12.21500699
O        6.29100419       2.09700139      14.31200839
O        0.00000000       4.19400279      14.31200839
O        0.00000000       6.29100419      12.21500699
O        2.09700139       4.19400279      12.21500699
O        2.09700139       6.29100419      14.31200839
O        4.19400279       4.19400279      14.31200839
O        4.19400279       6.29100419      12.21500699
O        6.29100419       4.19400279      12.21500699
O        6.29100419       6.29100419      14.31200839
O        8.38800558       0.00000000      10.11800560
O        8.38800558       2.09700139       8.02100420
O       10.48500697       0.00000000       8.02100420
O       10.48500697       2.09700139      10.11800560
O       12.58200837       0.00000000      10.11800560
O       12.58200837       2.09700139       8.02100420
O       14.67900976       0.00000000       8.02100420
O       14.67900976       2.09700139      10.11800560
O        8.38800558       4.19400279      10.11800560
O        8.38800558       6.29100419       8.02100420
O       10.48500697       4.19400279       8.02100420
O       10.48500697       6.29100419      10.11800560
O       12.58200837       4.19400279      10.11800560
O       12.58200837       6.29100419       8.02100420
O       14.67900976       4.19400279       8.02100420
O       14.67900976       6.29100419      10.11800560
O        8.38800558       0.00000000      14.31200839
O        8.38800558       2.09700139      12.21500699
O       10.48500697       0.00000000      12.21500699
O       10.48500697       2.09700139      14.31200839
O       12.58200837       0.00000000      14.31200839
O       12.58200837       2.09700139      12.21500699
O       14.67900976       0.00000000      12.21500699
O       14.67900976       2.09700139      14.31200839
O        8.38800558       4.19400279      14.31200839
O        8.38800558       6.29100419      12.21500699
O       10.48500697       4.19400279      12.21500699
O       10.48500697       6.29100419      14.31200839
O       12.58200837       4.19400279      14.31200839
O       12.58200837       6.29100419      12.21500699
O       14.67900976       4.19400279      12.21500699
O       14.67900976       6.29100419      14.31200839
O        0.00000000       8.38800558      10.11800560
O        0.00000000      10.48500697       8.02100420
O        2.09700139       8.38800558       8.02100420
O        2.09700139      10.48500697      10.11800560
O        4.19400279       8.38800558      10.11800560
O        4.19400279      10.48500697       8.02100420
O        6.29100419       8.38800558       8.02100420
O        6.29100419      10.48500697      10.11800560
O        0.00000000      12.58200837      10.11800560
O        0.00000000      14.67900976       8.02100420
O        2.09700139      12.58200837       8.02100420
O        2.09700139      14.67900976      10.11800560
O        4.19400279      12.58200837      10.11800560
O        4.19400279      14.67900976       8.02100420
O        6.29100419      12.58200837       8.02100420
O        6.29100419      14.67900976      10.11800560
O        0.00000000       8.38800558      14.31200839
O        0.00000000      10.48500697      12.21500699
O        2.09700139       8.38800558      12.21500699
O        2.09700139      10.48500697      14.31200839
O        4.19400279       8.38800558      14.31200839
O        4.19400279      10.48500697      12.21500699
O        6.29100419       8.38800558      12.21500699
O        6.29100419      10.48500697      14.31200839
O        0.00000000      12.58200837      14.31200839
O        0.00000000      14.67900976      12.21500699
O        2.09700139      12.58200837      12.21500699
O        2.09700139      14.67900976      14.31200839
O        4.19400279      12.58200837      14.31200839
O        4.19400279      14.67900976      12.21500699
O        6.29100419      12.58200837      12.21500699
O        6.29100419      14.67900976      14.31200839
O        8.38800558       8.38800558      10.11800560
O        8.38800558      10.48500697       8.02100420
O       10.48500697       8.38800558       8.02100420
O       10.48500697      10.48500697      10.11800560
O       12.58200837       8.38800558      10.11800560
O       12.58200837      10.48500697       8.02100420
O       14.67900976       8.38800558       8.02100420
O       14.67900976      10.48500697      10.11800560
O        8.38800558      12.58200837      10.11800560
O        8.38800558      14.67900976       8.02100420
O       10.48500697      12.58200837       8.02100420
O       10.48500697      14.67900976      10.11800560
O       12.58200837      12.58200837      10.11800560
O       12.58200837      14.67900976       8.02100420
O       14.67900976      12.58200837       8.02100420
O       14.67900976      14.67900976      10.11800560
O        8.38800558       8.38800558      14.31200839
O        8.38800558      10.48500697      12.21500699
O       10.48500697       8.38800558      12.21500699
O       10.48500697      10.48500697      14.31200839
O       12.58200837       8.38800558      14.31200839
O       12.58200837      10.48500697      12.21500699
O       14.67900976       8.38800558      12.21500699
O       14.67900976      10.48500697      14.31200839
O        8.38800558      12.58200837      14.31200839
O        8.38800558      14.67900976      12.21500699
O       10.48500697      12.58200837      12.21500699
O       10.48500697      14.67900976      14.31200839
O       12.58200837      12.58200837      14.31200839
O       12.58200837      14.67900976      12.21500699
O       14.67900976      12.58200837      12.21500699
O       14.67900976      14.67900976      14.31200839
O       16.77601116       0.00000000       1.73000002
O       16.77601116       2.09700139      49.96103210
O       18.87301255       0.00000000      49.96103210
O       18.87301255       2.09700139       1.73000002
O       20.97001395       0.00000000       1.73000002
O       20.97001395       2.09700139      49.96103210
O       23.06701534       0.00000000      49.96103210
O       23.06701534       2.09700139       1.73000002
O       16.77601116       4.19400279       1.73000002
O       16.77601116       6.29100419      49.96103210
O       18.87301255       4.19400279      49.96103210
O       18.87301255       6.29100419       1.73000002
O       20.97001395       4.19400279       1.73000002
O       20.97001395       6.29100419      49.96103210
O       23.06701534       4.19400279      49.96103210
O       23.06701534       6.29100419       1.73000002
O       16.77601116       0.00000000       5.92400281
O       16.77601116       2.09700139       3.82700141
O       18.87301255       0.00000000       3.82700141
O       18.87301255       2.09700139       5.92400281
O       20.97001395       0.00000000       5.92400281
O       20.97001395       2.09700139       3.82700141
O       23.06701534       0.00000000       3.82700141
O       23.06701534       2.09700139       5.92400281
O       16.77601116       4.19400279       5.92400281
O       16.77601116       6.29100419       3.82700141
O       18.87301255       4.19400279       3.82700141
O       18.87301255       6.29100419       5.92400281
O       20.97001395       4.19400279       5.92400281
O       20.97001395       6.29100419       3.82700141
O       23.06701534       4.19400279       3.82700141
O       23.06701534       6.29100419       5.92400281
O       25.16401674       0.00000000       1.73000002
O       25.16401674       2.09700139      49.96103210
O       27.26101814       0.00000000      49.96103210
O       27.26101814       2.09700139       1.73000002
O       29.35801953       0.00000000       1.73000002
O       29.35801953       2.09700139      49.96103210
O       31.45502092       0.00000000      49.96103210
O       31.45502092       2.09700139       1.73000002
O       25.16401674       4.19400279       1.73000002
O       25.16401674       6.29100419      49.96103210
O       27.26101814       4.19400279      49.96103210
O       27.26101814       6.29100419       1.73000002
O       29.35801953       4.19400279       1.73000002
O       29.35801953       6.29100419      49.96103210
O       31.45502092       4.19400279      49.96103210
O       31.45502092       6.29100419       1.73000002
O       25.16401674       0.00000000       5.92400281
O       25.16401674       2.09700139       3.82700141
O       27.26101814       0.00000000       3.82700141
O       27.26101814       2.09700139       5.92400281
O       29.35801953       0.00000000       5.92400281
O       29.35801953       2.09700139       3.82700141
O       31.45502092       0.00000000       3.82700141
O       31.45502092       2.09700139       5.92400281
O       25.16401674       4.19400279       5.92400281
O       25.16401674       6.29100419       3.82700141
O       27.26101814       4.19400279       3.82700141
O       27.26101814       6.29100419       5.92400281
O       29.35801953       4.19400279       5.92400281
O       29.35801953       6.29100419       3.82700141
O       31.45502092       4.19400279       3.82700141
O       31.45502092       6.29100419       5.92400281
O       16.77601116       8.38800558       1.73000002
O       16.77601116      10.48500697      49.96103210
O       18.87301255       8.38800558      49.96103210
O       18.87301255      10.48500697       1.73000002
O       20.97001395       8.38800558       1.73000002
O       20.97001395      10.48500697      49.96103210
O       23.06701534       8.38800558      49.96103210
O       23.06701534      10.48500697       1.73000002
O       16.77601116      12.58200837       1.73000002
O       16.77601116      14.67900976      49.96103210
O       18.87301255      12.58200837      49.96103210
O       18.87301255      14.67900976       1.73000002
O       20.97001395      12.58200837       1.73000002
O       20.97001395      14.67900976      49.96103210
O       23.06701534      12.58200837      49.96103210
O       23.06701534      14.67900976       1.73000002
O       16.77601116       8.38800558       5.92400281
O       16.77601116      10.48500697       3.82700141
O       18.87301255       8.38800558       3.82700141
O       18.87301255      10.48500697       5.92400281
O       20.97001395       8.38800558       5.92400281
O       20.97001395      10.48500697       3.82700141
O       23.06701534       8.38800558       3.82700141
O       23.06701534      10.48500697       5.92400281
O       16.77601116      12.58200837       5.92400281
O       16.77601116      14.67900976       3.82700141
O       18.87301255      12.58200837       3.82700141
O       18.87301255      14.67900976       5.92400281
O       20.97001395      12.58200837       5.92400281
O       20.97001395      14.67900976       3.82700141
O       23.06701534      12.58200837       3.82700141
O       23.06701534      14.67900976       5.92400281
O       25.16401674       8.38800558       1.73000002
O       25.16401674      10.48500697      49.96103210
O       27.26101814       8.38800558      49.96103210
O       27.26101814      10.48500697       1.73000002
O       29.35801953       8.38800558       1.73000002
O       29.35801953      10.48500697      49.96103210
O       31.45502092       8.38800558      49.96103210
O       31.45502092      10.48500697       1.73000002
O       25.16401674      12.58200837       1.73000002
O       25.16401674      14.67900976      49.96103210
O       27.26101814      12.58200837      49.96103210
O       27.26101814      14.67900976       1.73000002
O       29.35801953      12.58200837       1.73000002
O       29.35801953      14.67900976      49.96103210
O       31.45502092      12.58200837      49.96103210
O       31.45502092      14.67900976       1.73000002
O       25.16401674       8.38800558       5.92400281
O       25.16401674      10.48500697       3.82700141
O       27.26101814       8.38800558       3.82700141
O       27.26101814      10.48500697       5.92400281
O       29.35801953       8.38800558       5.92400281
O       29.35801953      10.48500697       3.82700141
O       31.45502092       8.38800558       3.82700141
O       31.45502092      10.48500697       5.92400281
O       25.16401674      12.58200837       5.92400281
O       25.16401674      14.67900976       3.82700141
O       27.26101814      12.58200837       3.82700141
O       27.26101814      14.67900976       5.92400281
O       29.35801953      12.58200837       5.92400281
O       29.35801953      14.67900976       3.82700141
O       31.45502092      12.58200837       3.82700141
O       31.45502092      14.67900976       5.92400281
O       16.77601116       0.00000000      10.11800560
O       16.77601116       2.09700139       8.02100420
O       18.87301255       0.00000000       8.02100420
O       18.87301255       2.09700139      10.11800560
O       20.97001395       0.00000000      10.11800560
O       20.97001395       2.09700139       8.02100420
O       23.06701534       0.00000000       8.02100420
O       23.06701534       2.09700139      10.11800560
O       16.77601116       4.19400279      10.11800560
O       16.77601116       6.29100419       8.02100420
O       18.87301255       4.19400279       8.02100420
O       18.87301255       6.29100419      10.11800560
O       20.97001395       4.19400279      10.11800560
O       20.97001395       6.29100419       8.02100420
O       23.06701534       4.19400279       8.02100420
O       23.06701534       6.29100419      10.11800560
O       16.77601116       0.00000000      14.31200839
O       16.77601116       2.09700139      12.21500699
O       18.87301255       0.00000000      12.21500699
O       18.87301255       2.09700139      14.31200839
O       20.97001395       0.00000000      14.31200839
O       20.97001395       2.09700139      12.21500699
O       23.06701534       0.00000000      12.21500699
O       23.06701534       2.09700139      14.31200839
O       16.77601116       4.19400279      14.31200839
O       16.77601116       6.29100419      12.21500699
O       18.87301255       4.19400279      12.21500699
O       18.87301255       6.29100419      14.31200839
O       20.97001395       4.19400279      14.31200839
O       20.97001395       6.29100419      12.21500699
O       23.06701534       4.19400279      12.21500699
O       23.06701534       6.29100419      14.31200839
O       25.16401674       0.00000000      10.11800560
O       25.16401674       2.09700139       8.02100420
O       27.26101814       0.00000000       8.02100420
O       27.26101814       2.09700139      10.11800560
O       29.35801953       0.00000000      10.11800560
O       29.35801953       2.09700139       8.02100420
O       31.45502092       0.00000000       8.02100420
O       31.45502092       2.09700139      10.11800560
O       25.16401674       4.19400279      10.11800560
O       25.16401674       6.29100419       8.02100420
O       27.26101814       4.19400279       8.02100420
O       27.26101814       6.29100419      10.11800560
O       29.35801953       4.19400279      10.11800560
O       29.35801953       6.29100419       8.02100420
O       31.45502092       4.19400279       8.02100420
O       31.45502092       6.29100419      10.11800560
O       25.16401674       0.00000000      14.31200839
O       25.16401674       2.09700139      12.21500699
O       27.26101814       0.00000000      12.21500699
O       27.26101814       2.09700139      14.31200839
O       29.35801953       0.00000000      14.31200839
O       29.35801953       2.09700139      12.21500699
O       31.45502092       0.00000000      12.21500699
O       31.45502092       2.09700139      14.31200839
O       25.16401674       4.19400279      14.31200839
O       25.16401674       6.29100419      12.21500699
O       27.26101814       4.19400279      12.21500699
O       27.26101814       6.29100419      14.31200839
O       29.35801953       4.19400279      14.31200839
O       29.35801953       6.29100419      12.21500699
O       31.45502092       4.19400279      12.21500699
O       31.45502092       6.29100419      14.31200839
O       16.77601116       8.38800558      10.11800560
O       16.77601116      10.48500697       8.02100420
O       18.87301255       8.38800558       8.02100420
O       18.87301255      10.48500697      10.11800560
O       20.97001395       8.38800558      10.11800560
O       20.97001395      10.48500697       8.02100420
O       23.06701534       8.38800558       8.02100420
O       23.06701534      10.48500697      10.11800560
O       16.77601116      12.58200837      10.11800560
O       16.77601116      14.67900976       8.02100420
O       18.87301255      12.58200837       8.02100420
O       18.87301255      14.67900976      10.11800560
O       20.97001395      12.58200837      10.11800560
O       20.97001395      14.67900976       8.02100420
O       23.06701534      12.58200837       8.02100420
O       23.06701534      14.67900976      10.11800560
O       16.77601116       8.38800558      14.31200839
O       16.77601116      10.48500697      12.21500699
O       18.87301255       8.38800558      12.21500699
O       18.87301255      10.48500697      14.31200839
O       20.97001395       8.38800558      14.31200839
O       20.97001395      10.48500697      12.21500699
O       23.06701534       8.38800558      12.21500699
O       23.06701534      10.48500697      14.31200839
O       16.77601116      12.58200837      14.31200839
O       16.77601116      14.67900976      12.21500699
O       18.87301255      12.58200837      12.21500699
O       18.87301255      14.67900976      14.31200839
O       20.97001395      12.58200837      14.31200839
O       20.97001395      14.67900976      12.21500699
O       23.06701534      12.58200837      12.21500699
O       23.06701534      14.67900976      14.31200839
O       25.16401674       8.38800558      10.11800560
O       25.16401674      10.48500697       8.02100420
O       27.26101814       8.38800558       8.02100420
O       27.26101814      10.48500697      10.11800560
O       29.35801953       8.38800558      10.11800560
O       29.35801953      10.48500697       8.02100420
O       31.45502092       8.38800558       8.02100420
O       31.45502092      10.48500697      10.11800560
O       25.16401674      12.58200837      10.11800560
O       25.16401674      14.67900976       8.02100420
O       27.26101814      12.58200837       8.02100420
O       27.26101814      14.67900976      10.11800560
O       29.35801953      12.58200837      10.11800560
O       29.35801953      14.67900976       8.02100420
O       31.45502092      12.58200837       8.02100420
O       31.45502092      14.67900976      10.11800560
O       25.16401674       8.38800558      14.31200839
O       25.16401674      10.48500697      12.21500699
O       27.26101814       8.38800558      12.21500699
O       27.26101814      10.48500697      14.31200839
O       29.35801953       8.38800558      14.31200839
O       29.35801953      10.48500697      12.21500699
O       31.45502092       8.38800558      12.21500699
O       31.45502092      10.48500697      14.31200839
O       25.16401674      12.58200837      14.31200839
O       25.16401674      14.67900976      12.21500699
O       27.26101814      12.58200837      12.21500699
O       27.26101814      14.67900976      14.31200839
O       29.35801953      12.58200837      14.31200839
O       29.35801953      14.67900976      12.21500699
O       31.45502092      12.58200837      12.21500699
O       31.45502092      14.67900976      14.31200839
O        0.00000000      16.77601116       1.73000002
O        0.00000000      18.87301255      49.96103210
O        2.09700139      16.77601116      49.96103210
O        2.09700139      18.87301255       1.73000002
O        4.19400279      16.77601116       1.73000002
O        4.19400279      18.87301255      49.96103210
O        6.29100419      16.77601116      49.96103210
O        6.29100419      18.87301255       1.73000002
O        0.00000000      20.97001395       1.73000002
O        0.00000000      23.06701534      49.96103210
O        2.09700139      20.97001395      49.96103210
O        2.09700139      23.06701534       1.73000002
O        4.19400279      20.97001395       1.73000002
O        4.19400279      23.06701534      49.96103210
O        6.29100419      20.97001395      49.96103210
O        6.29100419      23.06701534       1.73000002
O        0.00000000      16.77601116       5.92400281
O        0.00000000      18.87301255       3.82700141
O        2.09700139      16.77601116       3.82700141
O        2.09700139      18.87301255       5.92400281
O        4.19400279      16.77601116       5.92400281
O        4.19400279      18.87301255       3.82700141
O        6.29100419      16.77601116       3.82700141
O        6.29100419      18.87301255       5.92400281
O        0.00000000      20.97001395       5.92400281
O        0.00000000      23.06701534       3.82700141
O        2.09700139      20.97001395       3.82700141
O        2.09700139      23.06701534       5.92400281
O        4.19400279      20.97001395       5.92400281
O        4.19400279      23.06701534       3.82700141
O        6.29100419      20.97001395       3.82700141
O        6.29100419      23.06701534       5.92400281
O        8.38800558      16.77601116       1.73000002
O        8.38800558      18.87301255      49.96103210
O       10.48500697      16.77601116      49.96103210
O       10.48500697      18.87301255       1.73000002
O       12.58200837      16.77601116       1.73000002
O       12.58200837      18.87301255      49.96103210
O       14.67900976      16.77601116      49.96103210
O       14.67900976      18.87301255       1.73000002
O        8.38800558      20.97001395       1.73000002
O        8.38800558      23.06701534      49.96103210
O       10.48500697      20.97001395      49.96103210
O       10.48500697      23.06701534       1.73000002
O       12.58200837      20.97001395       1.73000002
O       12.58200837      23.06701534      49.96103210
O       14.67900976      20.97001395      49.96103210
O       14.67900976      23.06701534       1.73000002
O        8.38800558      16.77601116       5.92400281
O        8.38800558      18.87301255       3.82700141
O       10.48500697      16.77601116       3.82700141
O       10.48500697      18.87301255       5.92400281
O       12.58200837      16.77601116       5.92400281
O       12.58200837      18.87301255       3.82700141
O       14.67900976      16.77601116       3.82700141
O       14.67900976      18.87301255       5.92400281
O        8.38800558      20.97001395       5.92400281
O        8.38800558      23.06701534       3.82700141
O       10.48500697      20.97001395       3.82700141
O       10.48500697      23.06701534       5.92400281
O       12.58200837      20.97001395       5.92400281
O       12.58200837      23.06701534       3.82700141
O       14.67900976      20.97001395       3.82700141
O       14.67900976      23.06701534       5.92400281
O        0.00000000      25.16401674       1.73000002
O        0.00000000      27.26101814      49.96103210
O        2.09700139      25.16401674      49.96103210
O        2.09700139      27.26101814       1.73000002
O        4.19400279      25.16401674       1.73000002
O        4.19400279      27.26101814      49.96103210
O        6.29100419      25.16401674      49.96103210
O        6.29100419      27.26101814       1.73000002
O        0.00000000      29.35801953       1.73000002
O        0.00000000      31.45502092      49.96103210
O        2.09700139      29.35801953      49.96103210
O        2.09700139      31.45502092       1.73000002
O        4.19400279      29.35801953       1.73000002
O        4.19400279      31.45502092      49.96103210
O        6.29100419      29.35801953      49.96103210
O        6.29100419      31.45502092       1.73000002
O        0.00000000      25.16401674       5.92400281
O        0.00000000      27.26101814       3.82700141
O        2.09700139      25.16401674       3.82700141
O        2.09700139      27.26101814       5.92400281
O        4.19400279      25.16401674       5.92400281
O        4.19400279      27.26101814       3.82700141
O        6.29100419      25.16401674       3.82700141
O        6.29100419      27.26101814       5.92400281
O        0.00000000      29.35801953       5.92400281
O        0.00000000      31.45502092       3.82700141
O        2.09700139      29.35801953       3.82700141
O        2.09700139      31.45502092       5.92400281
O        4.19400279      29.35801953       5.92400281
O        4.19400279      31.45502092       3.82700141
O        6.29100419      29.35801953       3.82700141
O        6.29100419      31.45502092       5.92400281
O        8.38800558      25.16401674       1.73000002
O        8.38800558      27.26101814      49.96103210
O       10.48500697      25.16401674      49.96103210
O       10.48500697      27.26101814       1.73000002
O       12.58200837      25.16401674       1.73000002
O       12.58200837      27.26101814      49.96103210
O       14.67900976      25.16401674      49.96103210
O       14.67900976      27.26101814       1.73000002
O        8.38800558      29.35801953       1.73000002
O        8.38800558      31.45502092      49.96103210
O       10.48500697      29.35801953      49.96103210
O       10.48500697      31.45502092       1.73000002
O       12.58200837      29.35801953       1.73000002
O       12.58200837      31.45502092      49.96103210
O       14.67900976      29.35801953      49.96103210
O       14.67900976      31.45502092       1.73000002
O        8.38800558      25.16401674       5.92400281
O        8.38800558      27.26101814       3.82700141
O       10.48500697      25.16401674       3.82700141
O       10.48500697      27.26101814       5.92400281
O       12.58200837      25.16401674       5.92400281
O       12.58200837      27.26101814       3.82700141
O       14.67900976      25.16401674       3.82700141
O       14.67900976      27.26101814       5.92400281
O        8.38800558      29.35801953       5.92400281
O        8.38800558      31.45502092       3.82700141
O       10.48500697      29.35801953       3.82700141
O       10.48500697      31.45502092       5.92400281
O       12.58200837      29.35801953       5.92400281
O       12.58200837      31.45502092       3.82700141
O       14.67900976      29.35801953       3.82700141
O       14.67900976      31.45502092       5.92400281
O        0.00000000      16.77601116      10.11800560
O        0.00000000      18.87301255       8.02100420
O        2.09700139      16.77601116       8.02100420
O        2.09700139      18.87301255      10.11800560
O        4.19400279      16.77601116      10.11800560
O        4.19400279      18.87301255       8.02100420
O        6.29100419      16.77601116       8.02100420
O        6.29100419      18.87301255      10.11800560
O        0.00000000      20.97001395      10.11800560
O        0.00000000      23.06701534       8.02100420
O        2.09700139      20.97001395       8.02100420
O        2.09700139      23.06701534      10.11800560
O        4.19400279      20.97001395      10.11800560
O        4.19400279      23.06701534       8.02100420
O        6.29100419      20.97001395       8.02100420
O        6.29100419      23.06701534      10.11800560
O        0.00000000      16.77601116      14.31200839
O        0.00000000      18.87301255      12.21500699
O        2.09700139      16.77601116      12.21500699
O        2.09700139      18.87301255      14.31200839
O        4.19400279      16.77601116      14.31200839
O        4.19400279      18.87301255      12.21500699
O        6.29100419      16.77601116      12.21500699
O        6.29100419      18.87301255      14.31200839
O        0.00000000      20.97001395      14.31200839
O        0.00000000      23.06701534      12.21500699
O        2.09700139      20.97001395      12.21500699
O        2.09700139      23.06701534      14.31200839
O        4.19400279      20.97001395      14.31200839
O        4.19400279      23.06701534      12.21500699
O        6.29100419      20.97001395      12.21500699
O        6.29100419      23.06701534      14.31200839
O        8.38800558      16.77601116      10.11800560
O        8.38800558      18.87301255       8.02100420
O       10.48500697      16.77601116       8.02100420
O       10.48500697      18.87301255      10.11800560
O       12.58200837      16.77601116      10.11800560
O       12.58200837      18.87301255       8.02100420
O       14.67900976      16.77601116       8.02100420
O       14.67900976      18.87301255      10.11800560
O        8.38800558      20.97001395      10.11800560
O        8.38800558      23.06701534       8.02100420
O       10.48500697      20.97001395       8.02100420
O       10.48500697      23.06701534      10.11800560
O       12.58200837      20.97001395      10.11800560
O       12.58200837      23.06701534       8.02100420
O       14.67900976      20.97001395       8.02100420
O       14.67900976      23.06701534      10.11800560
O        8.38800558      16.77601116      14.31200839
O        8.38800558      18.87301255      12.21500699
O       10.48500697      16.77601116      12.21500699
O       10.48500697      18.87301255      14.31200839
O       12.58200837      16.77601116      14.31200839
O       12.58200837      18.87301255      12.21500699
O       14.67900976      16.77601116      12.21500699
O       14.67900976      18.87301255      14.31200839
O        8.38800558      20.97001395      14.31200839
O        8.38800558      23.06701534      12.21500699
O       10.48500697      20.97001395      12.21500699
O       10.48500697      23.06701534      14.31200839
O       12.58200837      20.97001395      14.31200839
O       12.58200837      23.06701534      12.21500699
O       14.67900976      20.97001395      12.21500699
O       14.67900976      23.06701534      14.31200839
O        0.00000000      25.16401674      10.11800560
O        0.00000000      27.26101814       8.02100420
O        2.09700139      25.16401674       8.02100420
O        2.09700139      27.26101814      10.11800560
O        4.19400279      25.16401674      10.11800560
O        4.19400279      27.26101814       8.02100420
O        6.29100419      25.16401674       8.02100420
O        6.29100419      27.26101814      10.11800560
O        0.00000000      29.35801953      10.11800560
O        0.00000000      31.45502092       8.02100420
O        2.09700139      29.35801953       8.02100420
O        2.09700139      31.45502092      10.11800560
O        4.19400279      29.35801953      10.11800560
O        4.19400279      31.45502092       8.02100420
O        6.29100419      29.35801953       8.02100420
O        6.29100419      31.45502092      10.11800560
O        0.00000000      25.16401674      14.31200839
O        0.00000000      27.26101814      12.21500699
O        2.09700139      25.16401674      12.21500699
O        2.09700139      27.26101814      14.31200839
O        4.19400279      25.16401674      14.31200839
O        4.19400279      27.26101814      12.21500699
O        6.29100419      25.16401674      12.21500699
O        6.29100419      27.26101814      14.31200839
O        0.00000000      29.35801953      14.31200839
O        0.00000000      31.45502092      12.21500699
O        2.09700139      29.35801953      12.21500699
O        2.09700139      31.45502092      14.31200839
O        4.19400279      29.35801953      14.31200839
O        4.19400279      31.45502092      12.21500699
O        6.29100419      29.35801953      12.21500699
O        6.29100419      31.45502092      14.31200839
O        8.38800558      25.16401674      10.11800560
O        8.38800558      27.26101814       8.02100420
O       10.48500697      25.16401674       8.02100420
O       10.48500697      27.26101814      10.11800560
O       12.58200837      25.16401674      10.11800560
O       12.58200837      27.26101814       8.02100420
O       14.67900976      25.16401674       8.02100420
O       14.67900976      27.26101814      10.11800560
O        8.38800558      29.35801953      10.11800560
O        8.38800558      31.45502092       8.02100420
O       10.48500697      29.35801953       8.02100420
O       10.48500697      31.45502092      10.11800560
O       12.58200837      29.35801953      10.11800560
O       12.58200837      31.45502092       8.02100420
O       14.67900976      29.35801953       8.02100420
O       14.67900976      31.45502092      10.11800560
O        8.38800558      25.16401674      14.31200839
O        8.38800558      27.26101814      12.21500699
O       10.48500697      25.16401674      12.21500699
O       10.48500697      27.26101814      14.31200839
O       12.58200837      25.16401674      14.31200839
O       12.58200837      27.26101814      12.21500699
O       14.67900976      25.16401674      12.21500699
O       14.67900976      27.26101814      14.31200839
O        8.38800558      29.35801953      14.31200839
O        8.38800558      31.45502092      12.21500699
O       10.48500697      29.35801953      12.21500699
O       10.48500697      31.45502092      14.31200839
O       12.58200837      29.35801953      14.31200839
O       12.58200837      31.45502092      12.21500699
O       14.67900976      29.35801953      12.21500699
O       14.67900976      31.45502092      14.31200839
O       16.77601116      16.77601116       1.73000002
O       16.77601116      18.87301255      49.96103210
O       18.87301255      16.77601116      49.96103210
O       18.87301255      18.87301255       1.73000002
O       20.97001395      16.77601116       1.73000002
O       20.97001395      18.87301255      49.96103210
O       23.06701534      16.77601116      49.96103210
O       23.06701534      18.87301255       1.73000002
O       16.77601116      20.97001395       1.73000002
O       16.77601116      23.06701534      49.96103210
O       18.87301255      20.97001395      49.96103210
O       18.87301255      23.06701534       1.73000002
O       20.97001395      20.97001395       1.73000002
O       20.97001395      23.06701534      49.96103210
O       23.06701534      20.97001395      49.96103210
O       23.06701534      23.06701534       1.73000002
O       16.77601116      16.77601116       5.92400281
O       16.77601116      18.87301255       3.82700141
O       18.87301255      16.77601116       3.82700141
O       18.87301255      18.87301255       5.92400281
O       20.97001395      16.77601116       5.92400281
O       20.97001395      18.87301255       3.82700141
O       23.06701534      16.77601116       3.82700141
O       23.06701534      18.87301255       5.92400281
O       16.77601116      20.97001395       5.92400281
O       16.77601116      23.06701534       3.82700141
O       18.87301255      20.97001395       3.82700141
O       18.87301255      23.06701534       5.92400281
O       20.97001395      20.97001395       5.92400281
O       20.97001395      23.06701534       3.82700141
O       23.06701534      20.97001395       3.82700141
O       23.06701534      23.06701534       5.92400281
O       25.16401674      16.77601116       1.73000002
O       25.16401674      18.87301255      49.96103210
O       27.26101814      16.77601116      49.96103210
O       27.26101814      18.87301255       1.73000002
O       29.35801953      16.77601116       1.73000002
O       29.35801953      18.87301255      49.96103210
O       31.45502092      16.77601116      49.96103210
O       31.45502092      18.87301255       1.73000002
O       25.16401674      20.97001395       1.73000002
O       25.16401674      23.06701534      49.96103210
O       27.26101814      20.97001395      49.96103210
O       27.26101814      23.06701534       1.73000002
O       29.35801953      20.97001395       1.73000002
O       29.35801953      23.06701534      49.96103210
O       31.45502092      20.97001395      49.96103210
O       31.45502092      23.06701534       1.73000002
O       25.16401674      16.77601116       5.92400281
O       25.16401674      18.87301255       3.82700141
O       27.26101814      16.77601116       3.82700141
O       27.26101814      18.87301255       5.92400281
O       29.35801953      16.77601116       5.92400281
O       29.35801953      18.87301255       3.82700141
O       31.45502092      16.77601116       3.82700141
O       31.45502092      18.87301255       5.92400281
O       25.16401674      20.97001395       5.92400281
O       25.16401674      23.06701534       3.82700141
O       27.26101814      20.97001395       3.82700141
O       27.26101814      23.06701534       5.92400281
O       29.35801953      20.97001395       5.92400281
O       29.35801953      23.06701534       3.82700141
O       31.45502092      20.97001395       3.82700141
O       31.45502092      23.06701534       5.92400281
O       16.77601116      25.16401674       1.73000002
O       16.77601116      27.26101814      49.96103210
O       18.87301255      25.16401674      49.96103210
O       18.87301255      27.26101814       1.73000002
O       20.97001395      25.16401674       1.73000002
O       20.97001395      27.26101814      49.96103210
O       23.06701534      25.16401674      49.96103210
O       23.06701534      27.26101814       1.73000002
O       16.77601116      29.35801953       1.73000002
O       16.77601116      31.45502092      49.96103210
O       18.87301255      29.35801953      49.96103210
O       18.87301255      31.45502092       1.73000002
O       20.97001395      29.35801953       1.73000002
O       20.97001395      31.45502092      49.96103210
O       23.06701534      29.35801953      49.96103210
O       23.06701534      31.45502092       1.73000002
O       16.77601116      25.16401674       5.92400281
O       16.77601116      27.26101814       3.82700141
O       18.87301255      25.16401674       3.82700141
O       18.87301255      27.26101814       5.92400281
O       20.97001395      25.16401674       5.92400281
O       20.97001395      27.26101814       3.82700141
O       23.06701534      25.16401674       3.82700141
O       23.06701534      27.26101814       5.92400281
O       16.77601116      29.35801953       5.92400281
O       16.77601116      31.45502092       3.82700141
O       18.87301255      29.35801953       3.82700141
O       18.87301255      31.45502092       5.92400281
O       20.97001395      29.35801953       5.92400281
O       20.97001395      31.45502092       3.82700141
O       23.06701534      29.35801953       3.82700141
O       23.06701534      31.45502092       5.92400281
O       25.16401674      25.16401674       1.73000002
O       25.16401674      27.26101814      49.96103210
O       27.26101814      25.16401674      49.96103210
O       27.26101814      27.26101814       1.73000002
O       29.35801953      25.16401674       1.73000002
O       29.35801953      27.26101814      49.96103210
O       31.45502092      25.16401674      49.96103210
O       31.45502092      27.26101814       1.73000002
O       25.16401674      29.35801953       1.73000002
O       25.16401674      31.45502092      49.96103210
O       27.26101814      29.35801953      49.96103210
O       27.26101814      31.45502092       1.73000002
O       29.35801953      29.35801953       1.73000002
O       29.35801953      31.45502092      49.96103210
O       31.45502092      29.35801953      49.96103210
O       31.45502092      31.45502092       1.73000002
O       25.16401674      25.16401674       5.92400281
O       25.16401674      27.26101814       3.82700141
O       27.26101814      25.16401674       3.82700141
O       27.26101814      27.26101814       5.92400281
O       29.35801953      25.16401674       5.92400281
O       29.35801953      27.26101814       3.82700141
O       31.45502092      25.16401674       3.82700141
O       31.45502092      27.26101814       5.92400281
O       25.16401674      29.35801953       5.92400281
O       25.16401674      31.45502092       3.82700141
O       27.26101814      29.35801953       3.82700141
O       27.26101814      31.45502092       5.92400281
O       29.35801953      29.35801953       5.92400281
O       29.35801953      31.45502092       3.82700141
O       31.45502092      29.35801953       3.82700141
O       31.45502092      31.45502092       5.92400281
O       16.77601116      16.77601116      10.11800560
O       16.77601116      18.87301255       8.02100420
O       18.87301255      16.77601116       8.02100420
O       18.87301255      18.87301255      10.11800560
O       20.97001395      16.77601116      10.11800560
O       20.97001395      18.87301255       8.02100420
O       23.06701534      16.77601116       8.02100420
O       23.06701534      18.87301255      10.11800560
O       16.77601116      20.97001395      10.11800560
O       16.77601116      23.06701534       8.02100420
O       18.87301255      20.97001395       8.02100420
O       18.87301255      23.06701534      10.11800560
O       20.97001395      20.97001395      10.11800560
O       20.97001395      23.06701534       8.02100420
O       23.06701534      20.97001395       8.02100420
O       23.06701534      23.06701534      10.11800560
O       16.77601116      16.77601116      14.31200839
O       16.77601116      18.87301255      12.21500699
O       18.87301255      16.77601116      12.21500699
O       18.87301255      18.87301255      14.31200839
O       20.97001395      16.77601116      14.31200839
O       20.97001395      18.87301255      12.21500699
O       23.06701534      16.77601116      12.21500699
O       23.06701534      18.87301255      14.31200839
O       16.77601116      20.97001395      14.31200839
O       16.77601116      23.06701534      12.21500699
O       18.87301255      20.97001395      12.21500699
O       18.87301255      23.06701534      14.31200839
O       20.97001395      20.97001395      14.31200839
O       20.97001395      23.06701534      12.21500699
O       23.06701534      20.97001395      12.21500699
O       23.06701534      23.06701534      14.31200839
O       25.16401674      16.77601116      10.11800560
O       25.16401674      18.87301255       8.02100420
O       27.26101814      16.77601116       8.02100420
O       27.26101814      18.87301255      10.11800560
O       29.35801953      16.77601116      10.11800560
O       29.35801953      18.87301255       8.02100420
O       31.45502092      16.77601116       8.02100420
O       31.45502092      18.87301255      10.11800560
O       25.16401674      20.97001395      10.11800560
O       25.16401674      23.06701534       8.02100420
O       27.26101814      20.97001395       8.02100420
O       27.26101814      23.06701534      10.11800560
O       29.35801953      20.97001395      10.11800560
O       29.35801953      23.06701534       8.02100420
O       31.45502092      20.97001395       8.02100420
O       31.45502092      23.06701534      10.11800560
O       25.16401674      16.77601116      14.31200839
O       25.16401674      18.87301255      12.21500699
O       27.26101814      16.77601116      12.21500699
O       27.26101814      18.87301255      14.31200839
O       29.35801953      16.77601116      14.31200839
O       29.35801953      18.87301255      12.21500699
O       31.45502092      16.77601116      12.21500699
O       31.45502092      18.87301255      14.31200839
O       25.16401674      20.97001395      14.31200839
O       25.16401674      23.06701534      12.21500699
O       27.26101814      20.97001395      12.21500699
O       27.26101814      23.06701534      14.31200839
O       29.35801953      20.97001395      14.31200839
O       29.35801953      23.06701534      12.21500699
O       31.45502092      20.97001395      12.21500699
O       31.45502092      23.06701534      14.31200839
O       16.77601116      25.16401674      10.11800560
O       16.77601116      27.26101814       8.02100420
O       18.87301255      25.16401674       8.02100420
O       18.87301255      27.26101814      10.11800560
O       20.97001395      25.16401674      10.11800560
O       20.97001395      27.26101814       8.02100420
O       23.06701534      25.16401674       8.02100420
O       23.06701534      27.26101814      10.11800560
O       16.77601116      29.35801953      10.11800560
O       16.77601116      31.45502092       8.02100420
O       18.87301255      29.35801953       8.02100420
O       18.87301255      31.45502092      10.11800560
O       20.97001395      29.35801953      10.11800560
O       20.97001395      31.45502092       8.02100420
O       23.06701534      29.35801953       8.02100420
O       23.06701534      31.45502092      10.11800560
O       16.77601116      25.16401674      14.31200839
O       16.77601116      27.26101814      12.21500699
O       18.87301255      25.16401674      12.21500699
O       18.87301255      27.26101814      14.31200839
O       20.97001395      25.16401674      14.31200839
O       20.97001395      27.26101814      12.21500699
O       23.06701534      25.16401674      12.21500699
O       23.06701534      27.26101814      14.31200839
O       16.77601116      29.35801953      14.31200839
O       16.77601116      31.45502092      12.21500699
O       18.87301255      29.35801953      12.21500699
O       18.87301255      31.45502092      14.31200839
O       20.97001395      29.35801953      14.31200839
O       20.97001395      31.45502092      12.21500699
O       23.06701534      29.35801953      12.21500699
O       23.06701534      31.45502092      14.31200839
O       25.16401674      25.16401674      10.11800560
O       25.16401674      27.26101814       8.02100420
O       27.26101814      25.16401674       8.02100420
O       27.26101814      27.26101814      10.11800560
O       29.35801953      25.16401674      10.11800560
O       29.35801953      27.26101814       8.02100420
O       31.45502092      25.16401674       8.02100420
O       31.45502092      27.26101814      10.11800560
O       25.16401674      29.35801953      10.11800560
O       25.16401674      31.45502092       8.02100420
O       27.26101814      29.35801953       8.02100420
O       27.26101814      31.45502092      10.11800560
O       29.35801953      29.35801953      10.11800560
O       29.35801953      31.45502092       8.02100420
O       31.45502092      29.35801953       8.02100420
O       31.45502092      31.45502092      10.11800560
O       25.16401674      25.16401674      14.31200839
O       25.16401674      27.26101814      12.21500699
O       27.26101814      25.16401674      12.21500699
O       27.26101814      27.26101814      14.31200839
O       29.35801953      25.16401674      14.31200839
O       29.35801953      27.26101814      12.21500699
O       31.45502092      25.16401674      12.21500699
O       31.45502092      27.26101814      14.31200839
O       25.16401674      29.35801953      14.31200839
O       25.16401674      31.45502092      12.21500699
O       27.26101814      29.35801953      12.21500699
O       27.26101814      31.45502092      14.31200839
O       29.35801953      29.35801953      14.31200839
O       29.35801953      31.45502092      12.21500699
O       31.45502092      29.35801953      12.21500699
O       31.45502092      31.45502092      14.31200839
O        0.00000000       0.00000000      18.50601118
O        0.00000000       2.09700139      16.40900978
O        2.09700139       0.00000000      16.40900978
O        2.09700139       2.09700139      18.50601118
O        4.19400279       0.00000000      18.50601118
O        4.19400279       2.09700139      16.40900978
O        6.29100419       0.00000000      16.40900978
O        6.29100419       2.09700139      18.50601118
O        0.00000000       4.19400279      18.50601118
O        0.00000000       6.29100419      16.40900978
O        2.09700139       4.19400279      16.40900978
O        2.09700139       6.29100419      18.50601118
O        4.19400279       4.19400279      18.50601118
O        4.19400279       6.29100419      16.40900978
O        6.29100419       4.19400279      16.40900978
O        6.29100419       6.29100419      18.50601118
O        0.00000000       0.00000000      22.70001397
O        0.00000000       2.09700139      20.60301257
O        2.09700139       0.00000000      20.60301257
O        2.09700139       2.09700139      22.70001397
O        4.19400279       0.00000000      22.70001397
O        4.19400279       2.09700139      20.60301257
O        6.29100419       0.00000000      20.60301257
O        6.29100419       2.09700139      22.70001397
O        0.00000000       4.19400279      22.70001397
O        0.00000000       6.29100419      20.60301257
O        2.09700139       4.19400279      20.60301257
O        2.09700139       6.29100419      22.70001397
O        4.19400279       4.19400279      22.70001397
O        4.19400279       6.29100419      20.60301257
O        6.29100419       4.19400279      20.60301257
O        6.29100419       6.29100419      22.70001397
O        8.38800558       0.00000000      18.50601118
O        8.38800558       2.09700139      16.40900978
O       10.48500697       0.00000000      16.40900978
O       10.48500697       2.09700139      18.50601118
O       12.58200837       0.00000000      18.50601118
O       12.58200837       2.09700139      16.40900978
O       14.67900976       0.00000000      16.40900978
O       14.67900976       2.09700139      18.50601118
O        8.38800558       4.19400279      18.50601118
O        8.38800558       6.29100419      16.40900978
O       10.48500697       4.19400279      16.40900978
O       10.48500697       6.29100419      18.50601118
O       12.58200837       4.19400279      18.50601118
O       12.58200837       6.29100419      16.40900978
O       14.67900976       4.19400279      16.40900978
O       14.67900976       6.29100419      18.50601118
O        8.38800558       0.00000000      22.70001397
O        8.38800558       2.09700139      20.60301257
O       10.48500697       0.00000000      20.60301257
O       10.48500697       2.09700139      22.70001397
O       12.58200837       0.00000000      22.70001397
O       12.58200837       2.09700139      20.60301257
O       14.67900976       0.00000000      20.60301257
O       14.67900976       2.09700139      22.70001397
O        8.38800558       4.19400279      22.70001397
O        8.38800558       6.29100419      20.60301257
O       10.48500697       4.19400279      20.60301257
O       10.48500697       6.29100419      22.70001397
O       12.58200837       4.19400279      22.70001397
O       12.58200837       6.29100419      20.60301257
O       14.67900976       4.19400279      20.60301257
O       14.67900976       6.29100419      22.70001397
O        0.00000000       8.38800558      18.50601118
O        0.00000000      10.48500697      16.40900978
O        2.09700139       8.38800558      16.40900978
O        2.09700139      10.48500697      18.50601118
O        4.19400279       8.38800558      18.50601118
O        4.19400279      10.48500697      16.40900978
O        6.29100419       8.38800558      16.40900978
O        6.29100419      10.48500697      18.50601118
O        0.00000000      12.58200837      18.50601118
O        0.00000000      14.67900976      16.40900978
O        2.09700139      12.58200837      16.40900978
O        2.09700139      14.67900976      18.50601118
O        4.19400279      12.58200837      18.50601118
O        4.19400279      14.67900976      16.40900978
O        6.29100419      12.58200837      16.40900978
O        6.29100419      14.67900976      18.50601118
O        0.00000000       8.38800558      22.70001397
O        0.00000000      10.48500697      20.60301257
O        2.09700139       8.38800558      20.60301257
O        2.09700139      10.48500697      22.70001397
O        4.19400279       8.38800558      22.70001397
O        4.19400279      10.48500697      20.60301257
O        6.29100419       8.38800558      20.60301257
O        6.29100419      10.48500697      22.70001397
O        0.00000000      12.58200837      22.70001397
O        0.00000000      14.67900976      20.60301257
O        2.09700139      12.58200837      20.60301257
O        2.09700139      14.67900976      22.70001397
O        4.19400279      12.58200837      22.70001397
O        4.19400279      14.67900976      20.60301257
O        6.29100419      12.58200837      20.60301257
O        6.29100419      14.67900976      22.70001397
O        8.38800558       8.38800558      18.50601118
O        8.38800558      10.48500697      16.40900978
O       10.48500697       8.38800558      16.40900978
O       10.48500697      10.48500697      18.50601118
O       12.58200837       8.38800558      18.50601118
O       12.58200837      10.48500697      16.40900978
O       14.67900976       8.38800558      16.40900978
O       14.67900976      10.48500697      18.50601118
O        8.38800558      12.58200837      18.50601118
O        8.38800558      14.67900976      16.40900978
O       10.48500697      12.58200837      16.40900978
O       10.48500697      14.67900976      18.50601118
O       12.58200837      12.58200837      18.50601118
O       12.58200837      14.67900976      16.40900978
O       14.67900976      12.58200837      16.40900978
O       14.67900976      14.67900976      18.50601118
O        8.38800558       8.38800558      22.70001397
O        8.38800558      10.48500697      20.60301257
O       10.48500697       8.38800558      20.60301257
O       10.48500697      10.48500697      22.70001397
O       12.58200837       8.38800558      22.70001397
O       12.58200837      10.48500697      20.60301257
O       14.67900976       8.38800558      20.60301257
O       14.67900976      10.48500697      22.70001397
O        8.38800558      12.58200837      22.70001397
O        8.38800558      14.67900976      20.60301257
O       10.48500697      12.58200837      20.60301257
O       10.48500697      14.67900976      22.70001397
O       12.58200837      12.58200837      22.70001397
O       12.58200837      14.67900976      20.60301257
O       14.67900976      12.58200837      20.60301257
O       14.67900976      14.67900976      22.70001397
O        0.00000000       0.00000000      26.89401676
O        0.00000000       2.09700139      24.79701536
O        2.09700139       0.00000000      24.79701536
O        2.09700139       2.09700139      26.89401676
O        4.19400279       0.00000000      26.89401676
O        4.19400279       2.09700139      24.79701536
O        6.29100419       0.00000000      24.79701536
O        6.29100419       2.09700139      26.89401676
O        0.00000000       4.19400279      26.89401676
O        0.00000000       6.29100419      24.79701536
O        2.09700139       4.19400279      24.79701536
O        2.09700139       6.29100419      26.89401676
O        4.19400279       4.19400279      26.89401676
O        4.19400279       6.29100419      24.79701536
O        6.29100419       4.19400279      24.79701536
O        6.29100419       6.29100419      26.89401676
O        0.00000000       0.00000000      31.08801955
O        0.00000000       2.09700139      28.99101815
O        2.09700139       0.00000000      28.99101815
O        2.09700139       2.09700139      31.08801955
O        4.19400279       0.00000000      31.08801955
O        4.19400279       2.09700139      28.99101815
O        6.29100419       0.00000000      28.99101815
O        6.29100419       2.09700139      31.08801955
O        0.00000000       4.19400279      31.08801955
O        0.00000000       6.29100419      28.99101815
O        2.09700139       4.19400279      28.99101815
O        2.09700139       6.29100419      31.08801955
O        4.19400279       4.19400279      31.08801955
O        4.19400279       6.29100419      28.99101815
O        6.29100419       4.19400279      28.99101815
O        6.29100419       6.29100419      31.08801955
O        8.38800558       0.00000000      26.89401676
O        8.38800558       2.09700139      24.79701536
O       10.48500697       0.00000000      24.79701536
O       10.48500697       2.09700139      26.89401676
O       12.58200837       0.00000000      26.89401676
O       12.58200837       2.09700139      24.79701536
O       14.67900976       0.00000000      24.79701536
O       14.67900976       2.09700139      26.89401676
O        8.38800558       4.19400279      26.89401676
O        8.38800558       6.29100419      24.79701536
O       10.48500697       4.19400279      24.79701536
O       10.48500697       6.29100419      26.89401676
O       12.58200837       4.19400279      26.89401676
O       12.58200837       6.29100419      24.79701536
O       14.67900976       4.19400279      24.79701536
O       14.67900976       6.29100419      26.89401676
O        8.38800558       0.00000000      31.08801955
O        8.38800558       2.09700139      28.99101815
O       10.48500697       0.00000000      28.99101815
O       10.48500697       2.09700139      31.08801955
O       12.58200837       0.00000000      31.08801955
O       12.58200837       2.09700139      28.99101815
O       14.67900976       0.00000000      28.99101815
O       14.67900976       2.09700139      31.08801955
O        8.38800558       4.19400279      31.08801955
O        8.38800558       6.29100419      28.99101815
O       10.48500697       4.19400279      28.99101815
O       10.48500697       6.29100419      31.08801955
O       12.58200837       4.19400279      31.08801955
O       12.58200837       6.29100419      28.99101815
O       14.67900976       4.19400279      28.99101815
O       14.67900976       6.29100419      31.08801955
O        0.00000000       8.38800558      26.89401676
O        0.00000000      10.48500697      24.79701536
O        2.09700139       8.38800558      24.79701536
O        2.09700139      10.48500697      26.89401676
O        4.19400279       8.38800558      26.89401676
O        4.19400279      10.48500697      24.79701536
O        6.29100419       8.38800558      24.79701536
O        6.29100419      10.48500697      26.89401676
O        0.00000000      12.58200837      26.89401676
O        0.00000000      14.67900976      24.79701536
O        2.09700139      12.58200837      24.79701536
O        2.09700139      14.67900976      26.89401676
O        4.19400279      12.58200837      26.89401676
O        4.19400279      14.67900976      24.79701536
O        6.29100419      12.58200837      24.79701536
O        6.29100419      14.67900976      26.89401676
O        0.00000000       8.38800558      31.08801955
O        0.00000000      10.48500697      28.99101815
O        2.09700139       8.38800558      28.99101815
O        2.09700139      10.48500697      31.08801955
O        4.19400279       8.38800558      31.08801955
O        4.19400279      10.48500697      28.99101815
O        6.29100419       8.38800558      28.99101815
O        6.29100419      10.48500697      31.08801955
O        0.00000000      12.58200837      31.08801955
O        0.00000000      14.67900976      28.99101815
O        2.09700139      12.58200837      28.99101815
O        2.09700139      14.67900976      31.08801955
O        4.19400279      12.58200837      31.08801955
O        4.19400279      14.67900976      28.99101815
O        6.29100419      12.58200837      28.99101815
O        6.29100419      14.67900976      31.08801955
O        8.38800558       8.38800558      26.89401676
O        8.38800558      10.48500697      24.79701536
O       10.48500697       8.38800558      24.79701536
O       10.48500697      10.48500697      26.89401676
O       12.58200837       8.38800558      26.89401676
O       12.58200837      10.48500697      24.79701536
O       14.67900976       8.38800558      24.79701536
O       14.67900976      10.48500697      26.89401676
O        8.38800558      12.58200837      26.89401676
O        8.38800558      14.67900976      24.79701536
O       10.48500697      12.58200837      24.79701536
O       10.48500697      14.67900976      26.89401676
O       12.58200837      12.58200837      26.89401676
O       12.58200837      14.67900976      24.79701536
O       14.67900976      12.58200837      24.79701536
O       14.67900976      14.67900976      26.89401676
O        8.38800558       8.38800558      31.08801955
O        8.38800558      10.48500697      28.99101815
O       10.48500697       8.38800558      28.99101815
O       10.48500697      10.48500697      31.08801955
O       12.58200837       8.38800558      31.08801955
O       12.58200837      10.48500697      28.99101815
O       14.67900976       8.38800558      28.99101815
O       14.67900976      10.48500697      31.08801955
O        8.38800558      12.58200837      31.08801955
O        8.38800558      14.67900976      28.99101815
O       10.48500697      12.58200837      28.99101815
O       10.48500697      14.67900976      31.08801955
O       12.58200837      12.58200837      31.08801955
O       12.58200837      14.67900976      28.99101815
O       14.67900976      12.58200837      28.99101815
O       14.67900976      14.67900976      31.08801955
O       16.77601116       0.00000000      18.50601118
O       16.77601116       2.09700139      16.40900978
O       18.87301255       0.00000000      16.40900978
O       18.87301255       2.09700139      18.50601118
O       20.97001395       0.00000000      18.50601118
O       20.97001395       2.09700139      16.40900978
O       23.06701534       0.00000000      16.40900978
O       23.06701534       2.09700139      18.50601118
O       16.77601116       4.19400279      18.50601118
O       16.77601116       6.29100419      16.40900978
O       18.87301255       4.19400279      16.40900978
O       18.87301255       6.29100419      18.50601118
O       20.97001395       4.19400279      18.50601118
O       20.97001395       6.29100419      16.40900978
O       23.06701534       4.19400279      16.40900978
O       23.06701534       6.29100419      18.50601118
O       16.77601116       0.00000000      22.70001397
O       16.77601116       2.09700139      20.60301257
O       18.87301255       0.00000000      20.60301257
O       18.87301255       2.09700139      22.70001397
O       20.97001395       0.00000000      22.70001397
O       20.97001395       2.09700139      20.60301257
O       23.06701534       0.00000000      20.60301257
O       23.06701534       2.09700139      22.70001397
O       16.77601116       4.19400279      22.70001397
O       16.77601116       6.29100419      20.60301257
O       18.87301255       4.19400279      20.60301257
O       18.87301255       6.29100419      22.70001397
O       20.97001395       4.19400279      22.70001397
O       20.97001395       6.29100419      20.60301257
O       23.06701534       4.19400279      20.60301257
O       23.06701534       6.29100419      22.70001397
O       25.16401674       0.00000000      18.50601118
O       25.16401674       2.09700139      16.40900978
O       27.26101814       0.00000000      16.40900978
O       27.26101814       2.09700139      18.50601118
O       29.35801953       0.00000000      18.50601118
O       29.35801953       2.09700139      16.40900978
O       31.45502092       0.00000000      16.40900978
O       31.45502092       2.09700139      18.50601118
O       25.16401674       4.19400279      18.50601118
O       25.16401674       6.29100419      16.40900978
O       27.26101814       4.19400279      16.40900978
O       27.26101814       6.29100419      18.50601118
O       29.35801953       4.19400279      18.50601118
O       29.35801953       6.29100419      16.40900978
O       31.45502092       4.19400279      16.40900978
O       31.45502092       6.29100419      18.50601118
O       25.16401674       0.00000000      22.70001397
O       25.16401674       2.09700139      20.60301257
O       27.26101814       0.00000000      20.60301257
O       27.26101814       2.09700139      22.70001397
O       29.35801953       0.00000000      22.70001397
O       29.35801953       2.09700139      20.60301257
O       31.45502092       0.00000000      20.60301257
O       31.45502092       2.09700139      22.70001397
O       25.16401674       4.19400279      22.70001397
O       25.16401674       6.29100419      20.60301257
O       27.26101814       4.19400279      20.60301257
O       27.26101814       6.29100419      22.70001397
O       29.35801953       4.19400279      22.70001397
O       29.35801953       6.29100419      20.60301257
O       31.45502092       4.19400279      20.60301257
O       31.45502092       6.29100419      22.70001397
O       16.77601116       8.38800558      18.50601118
O       16.77601116      10.48500697      16.40900978
O       18.87301255       8.38800558      16.40900978
O       18.87301255      10.48500697      18.50601118
O       20.97001395       8.38800558      18.50601118
O       20.97001395      10.48500697      16.40900978
O       23.06701534       8.38800558      16.40900978
O       23.06701534      10.48500697      18.50601118
O       16.77601116      12.58200837      18.50601118
O       16.77601116      14.67900976      16.40900978
O       18.87301255      12.58200837      16.40900978
O       18.87301255      14.67900976      18.50601118
O       20.97001395      12.58200837      18.50601118
O       20.97001395      14.67900976      16.40900978
O       23.06701534      12.58200837      16.40900978
O       23.06701534      14.67900976      18.50601118
O       16.77601116       8.38800558      22.70001397
O       16.77601116      10.48500697      20.60301257
O       18.87301255       8.38800558      20.60301257
O       18.87301255      10.48500697      22.70001397
O       20.97001395       8.38800558      22.70001397
O       20.97001395      10.48500697      20.60301257
O       23.06701534       8.38800558      20.60301257
O       23.06701534      10.48500697      22.70001397
O       16.77601116      12.58200837      22.70001397
O       16.77601116      14.67900976      20.60301257
O       18.87301255      12.58200837      20.60301257
O       18.87301255      14.67900976      22.70001397
O       20.97001395      12.58200837      22.70001397
O       20.97001395      14.67900976      20.60301257
O       23.06701534      12.58200837      20.60301257
O       23.06701534      14.67900976      22.70001397
O       25.16401674       8.38800558      18.50601118
O       25.16401674      10.48500697      16.40900978
O       27.26101814       8.38800558      16.40900978
O       27.26101814      10.48500697      18.50601118
O       29.35801953       8.38800558      18.50601118
O       29.35801953      10.48500697      16.40900978
O       31.45502092       8.38800558      16.40900978
O       31.45502092      10.48500697      18.50601118
O       25.16401674      12.58200837      18.50601118
O       25.16401674      14.67900976      16.40900978
O       27.26101814      12.58200837      16.40900978
O       27.26101814      14.67900976      18.50601118
O       29.35801953      12.58200837      18.50601118
O       29.35801953      14.67900976      16.40900978
O       31.45502092      12.58200837      16.40900978
O       31.45502092      14.67900976      18.50601118
O       25.16401674       8.38800558      22.70001397
O       25.16401674      10.48500697      20.60301257
O       27.26101814       8.38800558      20.60301257
O       27.26101814      10.48500697      22.70001397
O       29.35801953       8.38800558      22.70001397
O       29.35801953      10.48500697      20.60301257
O       31.45502092       8.38800558      20.60301257
O       31.45502092      10.48500697      22.70001397
O       25.16401674      12.58200837      22.70001397
O       25.16401674      14.67900976      20.60301257
O       27.26101814      12.58200837      20.60301257
O       27.26101814      14.67900976      22.70001397
O       29.35801953      12.58200837      22.70001397
O       29.35801953      14.67900976      20.60301257
O       31.45502092      12.58200837      20.60301257
O       31.45502092      14.67900976      22.70001397
O       16.77601116       0.00000000      26.89401676
O       16.77601116       2.09700139      24.79701536
O       18.87301255       0.00000000      24.79701536
O       18.87301255       2.09700139      26.89401676
O       20.97001395       0.00000000      26.89401676
O       20.97001395       2.09700139      24.79701536
O       23.06701534       0.00000000      24.79701536
O       23.06701534       2.09700139      26.89401676
O       16.77601116       4.19400279      26.89401676
O       16.77601116       6.29100419      24.79701536
O       18.87301255       4.19400279      24.79701536
O       18.87301255       6.29100419      26.89401676
O       20.97001395       4.19400279      26.89401676
O       20.97001395       6.29100419      24.79701536
O       23.06701534       4.19400279      24.79701536
O       23.06701534       6.29100419      26.89401676
O       16.77601116       0.00000000      31.08801955
O       16.77601116       2.09700139      28.99101815
O       18.87301255       0.00000000      28.99101815
O       18.87301255       2.09700139      31.08801955
O       20.97001395       0.00000000      31.08801955
O       20.97001395       2.09700139      28.99101815
O       23.06701534       0.00000000      28.99101815
O       23.06701534       2.09700139      31.08801955
O       16.77601116       4.19400279      31.08801955
O       16.77601116       6.29100419      28.99101815
O       18.87301255       4.19400279      28.99101815
O       18.87301255       6.29100419      31.08801955
O       20.97001395       4.19400279      31.08801955
O       20.97001395       6.29100419      28.99101815
O       23.06701534       4.19400279      28.99101815
O       23.06701534       6.29100419      31.08801955
O       25.16401674       0.00000000      26.89401676
O       25.16401674       2.09700139      24.79701536
O       27.26101814       0.00000000      24.79701536
O       27.26101814       2.09700139      26.89401676
O       29.35801953       0.00000000      26.89401676
O       29.35801953       2.09700139      24.79701536
O       31.45502092       0.00000000      24.79701536
O       31.45502092       2.09700139      26.89401676
O       25.16401674       4.19400279      26.89401676
O       25.16401674       6.29100419      24.79701536
O       27.26101814       4.19400279      24.79701536
O       27.26101814       6.29100419      26.89401676
O       29.35801953       4.19400279      26.89401676
O       29.35801953       6.29100419      24.79701536
O       31.45502092       4.19400279      24.79701536
O       31.45502092       6.29100419      26.89401676
O       25.16401674       0.00000000      31.08801955
O       25.16401674       2.09700139      28.99101815
O       27.26101814       0.00000000      28.99101815
O       27.26101814       2.09700139      31.08801955
O       29.35801953       0.00000000      31.08801955
O       29.35801953       2.09700139      28.99101815
O       31.45502092       0.00000000      28.99101815
O       31.45502092       2.09700139      31.08801955
O       25.16401674       4.19400279      31.08801955
O       25.16401674       6.29100419      28.99101815
O       27.26101814       4.19400279      28.99101815
O       27.26101814       6.29100419      31.08801955
O       29.35801953       4.19400279      31.08801955
O       29.35801953       6.29100419      28.99101815
O       31.45502092       4.19400279      28.99101815
O       31.45502092       6.29100419      31.08801955
O       16.77601116       8.38800558      26.89401676
O       16.77601116      10.48500697      24.79701536
O       18.87301255       8.38800558      24.79701536
O       18.87301255      10.48500697      26.89401676
O       20.97001395       8.38800558      26.89401676
O       20.97001395      10.48500697      24.79701536
O       23.06701534       8.38800558      24.79701536
O       23.06701534      10.48500697      26.89401676
O       16.77601116      12.58200837      26.89401676
O       16.77601116      14.67900976      24.79701536
O       18.87301255      12.58200837      24.79701536
O       18.87301255      14.67900976      26.89401676
O       20.97001395      12.58200837      26.89401676
O       20.97001395      14.67900976      24.79701536
O       23.06701534      12.58200837      24.79701536
O       23.06701534      14.67900976      26.89401676
O       16.77601116       8.38800558      31.08801955
O       16.77601116      10.48500697      28.99101815
O       18.87301255       8.38800558      28.99101815
O       18.87301255      10.48500697      31.08801955
O       20.97001395       8.38800558      31.08801955
O       20.97001395      10.48500697      28.99101815
O       23.06701534       8.38800558      28.99101815
O       23.06701534      10.48500697      31.08801955
O       16.77601116      12.58200837      31.08801955
O       16.77601116      14.67900976      28.99101815
O       18.87301255      12.58200837      28.99101815
O       18.87301255      14.67900976      31.08801955
O       20.97001395      12.58200837      31.08801955
O       20.97001395      14.67900976      28.99101815
O       23.06701534      12.58200837      28.99101815
O       23.06701534      14.67900976      31.08801955
O       25.16401674       8.38800558      26.89401676
O       25.16401674      10.48500697      24.79701536
O       27.26101814       8.38800558      24.79701536
O       27.26101814      10.48500697      26.89401676
O       29.35801953       8.38800558      26.89401676
O       29.35801953      10.48500697      24.79701536
O       31.45502092       8.38800558      24.79701536
O       31.45502092      10.48500697      26.89401676
O       25.16401674      12.58200837      26.89401676
O       25.16401674      14.67900976      24.79701536
O       27.26101814      12.58200837      24.79701536
O       27.26101814      14.67900976      26.89401676
O       29.35801953      12.58200837      26.89401676
O       29.35801953      14.67900976      24.79701536
O       31.45502092      12.58200837      24.79701536
O       31.45502092      14.67900976      26.89401676
O       25.16401674       8.38800558      31.08801955
O       25.16401674      10.48500697      28.99101815
O       27.26101814       8.38800558      28.99101815
O       27.26101814      10.48500697      31.08801955
O       29.35801953       8.38800558      31.08801955
O       29.35801953      10.48500697      28.99101815
O       31.45502092       8.38800558      28.99101815
O       31.45502092      10.48500697      31.08801955
O       25.16401674      12.58200837      31.08801955
O       25.16401674      14.67900976      28.99101815
O       27.26101814      12.58200837      28.99101815
O       27.26101814      14.67900976      31.08801955
O       29.35801953      12.58200837      31.08801955
O       29.35801953      14.67900976      28.99101815
O       31.45502092      12.58200837      28.99101815
O       31.45502092      14.67900976      31.08801955
O        0.00000000      16.77601116      18.50601118
O        0.00000000      18.87301255      16.40900978
O        2.09700139      16.77601116      16.40900978
O        2.09700139      18.87301255      18.50601118
O        4.19400279      16.77601116      18.50601118
O        4.19400279      18.87301255      16.40900978
O        6.29100419      16.77601116      16.40900978
O        6.29100419      18.87301255      18.50601118
O        0.00000000      20.97001395      18.50601118
O        0.00000000      23.06701534      16.40900978
O        2.09700139      20.97001395      16.40900978
O        2.09700139      23.06701534      18.50601118
O        4.19400279      20.97001395      18.50601118
O        4.19400279      23.06701534      16.40900978
O        6.29100419      20.97001395      16.40900978
O        6.29100419      23.06701534      18.50601118
O        0.00000000      16.77601116      22.70001397
O        0.00000000      18.87301255      20.60301257
O        2.09700139      16.77601116      20.60301257
O        2.09700139      18.87301255      22.70001397
O        4.19400279      16.77601116      22.70001397
O        4.19400279      18.87301255      20.60301257
O        6.29100419      16.77601116      20.60301257
O        6.29100419      18.87301255      22.70001397
O        0.00000000      20.97001395      22.70001397
O        0.00000000      23.06701534      20.60301257
O        2.09700139      20.97001395      20.60301257
O        2.09700139      23.06701534      22.70001397
O        4.19400279      20.97001395      22.70001397
O        4.19400279      23.06701534      20.60301257
O        6.29100419      20.97001395      20.60301257
O        6.29100419      23.06701534      22.70001397
O        8.38800558      16.77601116      18.50601118
O        8.38800558      18.87301255      16.40900978
O       10.48500697      16.77601116      16.40900978
O       10.48500697      18.87301255      18.50601118
O       12.58200837      16.77601116      18.50601118
O       12.58200837      18.87301255      16.40900978
O       14.67900976      16.77601116      16.40900978
O       14.67900976      18.87301255      18.50601118
O        8.38800558      20.97001395      18.50601118
O        8.38800558      23.06701534      16.40900978
O       10.48500697      20.97001395      16.40900978
O       10.48500697      23.06701534      18.50601118
O       12.58200837      20.97001395      18.50601118
O       12.58200837      23.06701534      16.40900978
O       14.67900976      20.97001395      16.40900978
O       14.67900976      23.06701534      18.50601118
O        8.38800558      16.77601116      22.70001397
O        8.38800558      18.87301255      20.60301257
O       10.48500697      16.77601116      20.60301257
O       10.48500697      18.87301255      22.70001397
O       12.58200837      16.77601116      22.70001397
O       12.58200837      18.87301255      20.60301257
O       14.67900976      16.77601116      20.60301257
O       14.67900976      18.87301255      22.70001397
O        8.38800558      20.97001395      22.70001397
O        8.38800558      23.06701534      20.60301257
O       10.48500697      20.97001395      20.60301257
O       10.48500697      23.06701534      22.70001397
O       12.58200837      20.97001395      22.70001397
O       12.58200837      23.06701534      20.60301257
O       14.67900976      20.97001395      20.60301257
O       14.67900976      23.06701534      22.70001397
O        0.00000000      25.16401674      18.50601118
O        0.00000000      27.26101814      16.40900978
O        2.09700139      25.16401674      16.40900978
O        2.09700139      27.26101814      18.50601118
O        4.19400279      25.16401674      18.50601118
O        4.19400279      27.26101814      16.40900978
O        6.29100419      25.16401674      16.40900978
O        6.29100419      27.26101814      18.50601118
O        0.00000000      29.35801953      18.50601118
O        0.00000000      31.45502092      16.40900978
O        2.09700139      29.35801953      16.40900978
O        2.09700139      31.45502092      18.50601118
O        4.19400279      29.35801953      18.50601118
O        4.19400279      31.45502092      16.40900978
O        6.29100419      29.35801953      16.40900978
O        6.29100419      31.45502092      18.50601118
O        0.00000000      25.16401674      22.70001397
O        0.00000000      27.26101814      20.60301257
O        2.09700139      25.16401674      20.60301257
O        2.09700139      27.26101814      22.70001397
O        4.19400279      25.16401674      22.70001397
O        4.19400279      27.26101814      20.60301257
O        6.29100419      25.16401674      20.60301257
O        6.29100419      27.26101814      22.70001397
O        0.00000000      29.35801953      22.70001397
O        0.00000000      31.45502092      20.60301257
O        2.09700139      29.35801953      20.60301257
O        2.09700139      31.45502092      22.70001397
O        4.19400279      29.35801953      22.70001397
O        4.19400279      31.45502092      20.60301257
O        6.29100419      29.35801953      20.60301257
O        6.29100419      31.45502092      22.70001397
O        8.38800558      25.16401674      18.50601118
O        8.38800558      27.26101814      16.40900978
O       10.48500697      25.16401674      16.40900978
O       10.48500697      27.26101814      18.50601118
O       12.58200837      25.16401674      18.50601118
O       12.58200837      27.26101814      16.40900978
O       14.67900976      25.16401674      16.40900978
O       14.67900976      27.26101814      18.50601118
O        8.38800558      29.35801953      18.50601118
O        8.38800558      31.45502092      16.40900978
O       10.48500697      29.35801953      16.40900978
O       10.48500697      31.45502092      18.50601118
O       12.58200837      29.35801953      18.50601118
O       12.58200837      31.45502092      16.40900978
O       14.67900976      29.35801953      16.40900978
O       14.67900976      31.45502092      18.50601118
O        8.38800558      25.16401674      22.70001397
O        8.38800558      27.26101814      20.60301257
O       10.48500697      25.16401674      20.60301257
O       10.48500697      27.26101814      22.70001397
O       12.58200837      25.16401674      22.70001397
O       12.58200837      27.26101814      20.60301257
O       14.67900976      25.16401674      20.60301257
O       14.67900976      27.26101814      22.70001397
O        8.38800558      29.35801953      22.70001397
O        8.38800558      31.45502092      20.60301257
O       10.48500697      29.35801953      20.60301257
O       10.48500697      31.45502092      22.70001397
O       12.58200837      29.35801953      22.70001397
O       12.58200837      31.45502092      20.60301257
O       14.67900976      29.35801953      20.60301257
O       14.67900976      31.45502092      22.70001397
O        0.00000000      16.77601116      26.89401676
O        0.00000000      18.87301255      24.79701536
O        2.09700139      16.77601116      24.79701536
O        2.09700139      18.87301255      26.89401676
O        4.19400279      16.77601116      26.89401676
O        4.19400279      18.87301255      24.79701536
O        6.29100419      16.77601116      24.79701536
O        6.29100419      18.87301255      26.89401676
O        0.00000000      20.97001395      26.89401676
O        0.00000000      23.06701534      24.79701536
O        2.09700139      20.97001395      24.79701536
O        2.09700139      23.06701534      26.89401676
O        4.19400279      20.97001395      26.89401676
O        4.19400279      23.06701534      24.79701536
O        6.29100419      20.97001395      24.79701536
O        6.29100419      23.06701534      26.89401676
O        0.00000000      16.77601116      31.08801955
O        0.00000000      18.87301255      28.99101815
O        2.09700139      16.77601116      28.99101815
O        2.09700139      18.87301255      31.08801955
O        4.19400279      16.77601116      31.08801955
O        4.19400279      18.87301255      28.99101815
O        6.29100419      16.77601116      28.99101815
O        6.29100419      18.87301255      31.08801955
O        0.00000000      20.97001395      31.08801955
O        0.00000000      23.06701534      28.99101815
O        2.09700139      20.97001395      28.99101815
O        2.09700139      23.06701534      31.08801955
O        4.19400279      20.97001395      31.08801955
O        4.19400279      23.06701534      28.99101815
O        6.29100419      20.97001395      28.99101815
O        6.29100419      23.06701534      31.08801955
O        8.38800558      16.77601116      26.89401676
O        8.38800558      18.87301255      24.79701536
O       10.48500697      16.77601116      24.79701536
O       10.48500697      18.87301255      26.89401676
O       12.58200837      16.77601116      26.89401676
O       12.58200837      18.87301255      24.79701536
O       14.67900976      16.77601116      24.79701536
O       14.67900976      18.87301255      26.89401676
O        8.38800558      20.97001395      26.89401676
O        8.38800558      23.06701534      24.79701536
O       10.48500697      20.97001395      24.79701536
O       10.48500697      23.06701534      26.89401676
O       12.58200837      20.97001395      26.89401676
O       12.58200837      23.06701534      24.79701536
O       14.67900976      20.97001395      24.79701536
O       14.67900976      23.06701534      26.89401676
O        8.38800558      16.77601116      31.08801955
O        8.38800558      18.87301255      28.99101815
O       10.48500697      16.77601116      28.99101815
O       10.48500697      18.87301255      31.08801955
O       12.58200837      16.77601116      31.08801955
O       12.58200837      18.87301255      28.99101815
O       14.67900976      16.77601116      28.99101815
O       14.67900976      18.87301255      31.08801955
O        8.38800558      20.97001395      31.08801955
O        8.38800558      23.06701534      28.99101815
O       10.48500697      20.97001395      28.99101815
O       10.48500697      23.06701534      31.08801955
O       12.58200837      20.97001395      31.08801955
O       12.58200837      23.06701534      28.99101815
O       14.67900976      20.97001395      28.99101815
O       14.67900976      23.06701534      31.08801955
O        0.00000000      25.16401674      26.89401676
O        0.00000000      27.26101814      24.79701536
O        2.09700139      25.16401674      24.79701536
O        2.09700139      27.26101814      26.89401676
O        4.19400279      25.16401674      26.89401676
O        4.19400279      27.26101814      24.79701536
O        6.29100419      25.16401674      24.79701536
O        6.29100419      27.26101814      26.89401676
O        0.00000000      29.35801953      26.89401676
O        0.00000000      31.45502092      24.79701536
O        2.09700139      29.35801953      24.79701536
O        2.09700139      31.45502092      26.89401676
O        4.19400279      29.35801953      26.89401676
O        4.19400279      31.45502092      24.79701536
O        6.29100419      29.35801953      24.79701536
O        6.29100419      31.45502092      26.89401676
O        0.00000000      25.16401674      31.08801955
O        0.00000000      27.26101814      28.99101815
O        2.09700139      25.16401674      28.99101815
O        2.09700139      27.26101814      31.08801955
O        4.19400279      25.16401674      31.08801955
O        4.19400279      27.26101814      28.99101815
O        6.29100419      25.16401674      28.99101815
O        6.29100419      27.26101814      31.08801955
O        0.00000000      29.35801953      31.08801955
O        0.00000000      31.45502092      28.99101815
O        2.09700139      29.35801953      28.99101815
O        2.09700139      31.45502092      31.08801955
O        4.19400279      29.35801953      31.08801955
O        4.19400279      31.45502092      28.99101815
O        6.29100419      29.35801953      28.99101815
O        6.29100419      31.45502092      31.08801955
O        8.38800558      25.16401674      26.89401676
O        8.38800558      27.26101814      24.79701536
O       10.48500697      25.16401674      24.79701536
O       10.48500697      27.26101814      26.89401676
O       12.58200837      25.16401674      26.89401676
O       12.58200837      27.26101814      24.79701536
O       14.67900976      25.16401674      24.79701536
O       14.67900976      27.26101814      26.89401676
O        8.38800558      29.35801953      26.89401676
O        8.38800558      31.45502092      24.79701536
O       10.48500697      29.35801953      24.79701536
O       10.48500697      31.45502092      26.89401676
O       12.58200837      29.35801953      26.89401676
O       12.58200837      31.45502092      24.79701536
O       14.67900976      29.35801953      24.79701536
O       14.67900976      31.45502092      26.89401676
O        8.38800558      25.16401674      31.08801955
O        8.38800558      27.26101814      28.99101815
O       10.48500697      25.16401674      28.99101815
O       10.48500697      27.26101814      31.08801955
O       12.58200837      25.16401674      31.08801955
O       12.58200837      27.26101814      28.99101815
O       14.67900976      25.16401674      28.99101815
O       14.67900976      27.26101814      31.08801955
O        8.38800558      29.35801953      31.08801955
O        8.38800558      31.45502092      28.99101815
O       10.48500697      29.35801953      28.99101815
O       10.48500697      31.45502092      31.08801955
O       12.58200837      29.35801953      31.08801955
O       12.58200837      31.45502092      28.99101815
O       14.67900976      29.35801953      28.99101815
O       14.67900976      31.45502092      31.08801955
O       16.77601116      16.77601116      18.50601118
O       16.77601116      18.87301255      16.40900978
O       18.87301255      16.77601116      16.40900978
O       18.87301255      18.87301255      18.50601118
O       20.97001395      16.77601116      18.50601118
O       20.97001395      18.87301255      16.40900978
O       23.06701534      16.77601116      16.40900978
O       23.06701534      18.87301255      18.50601118
O       16.77601116      20.97001395      18.50601118
O       16.77601116      23.06701534      16.40900978
O       18.87301255      20.97001395      16.40900978
O       18.87301255      23.06701534      18.50601118
O       20.97001395      20.97001395      18.50601118
O       20.97001395      23.06701534      16.40900978
O       23.06701534      20.97001395      16.40900978
O       23.06701534      23.06701534      18.50601118
O       16.77601116      16.77601116      22.70001397
O       16.77601116      18.87301255      20.60301257
O       18.87301255      16.77601116      20.60301257
O       18.87301255      18.87301255      22.70001397
O       20.97001395      16.77601116      22.70001397
O       20.97001395      18.87301255      20.60301257
O       23.06701534      16.77601116      20.60301257
O       23.06701534      18.87301255      22.70001397
O       16.77601116      20.97001395      22.70001397
O       16.77601116      23.06701534      20.60301257
O       18.87301255      20.97001395      20.60301257
O       18.87301255      23.06701534      22.70001397
O       20.97001395      20.97001395      22.70001397
O       20.97001395      23.06701534      20.60301257
O       23.06701534      20.97001395      20.60301257
O       23.06701534      23.06701534      22.70001397
O       25.16401674      16.77601116      18.50601118
O       25.16401674      18.87301255      16.40900978
O       27.26101814      16.77601116      16.40900978
O       27.26101814      18.87301255      18.50601118
O       29.35801953      16.77601116      18.50601118
O       29.35801953      18.87301255      16.40900978
O       31.45502092      16.77601116      16.40900978
O       31.45502092      18.87301255      18.50601118
O       25.16401674      20.97001395      18.50601118
O       25.16401674      23.06701534      16.40900978
O       27.26101814      20.97001395      16.40900978
O       27.26101814      23.06701534      18.50601118
O       29.35801953      20.97001395      18.50601118
O       29.35801953      23.06701534      16.40900978
O       31.45502092      20.97001395      16.40900978
O       31.45502092      23.06701534      18.50601118
O       25.16401674      16.77601116      22.70001397
O       25.16401674      18.87301255      20.60301257
O       27.26101814      16.77601116      20.60301257
O       27.26101814      18.87301255      22.70001397
O       29.35801953      16.77601116      22.70001397
O       29.35801953      18.87301255      20.60301257
O       31.45502092      16.77601116      20.60301257
O       31.45502092      18.87301255      22.70001397
O       25.16401674      20.97001395      22.70001397
O       25.16401674      23.06701534      20.60301257
O       27.26101814      20.97001395      20.60301257
O       27.26101814      23.06701534      22.70001397
O       29.35801953      20.97001395      22.70001397
O       29.35801953      23.06701534      20.60301257
O       31.45502092      20.97001395      20.60301257
O       31.45502092      23.06701534      22.70001397
O       16.77601116      25.16401674      18.50601118
O       16.77601116      27.26101814      16.40900978
O       18.87301255      25.16401674      16.40900978
O       18.87301255      27.26101814      18.50601118
O       20.97001395      25.16401674      18.50601118
O       20.97001395      27.26101814      16.40900978
O       23.06701534      25.16401674      16.40900978
O       23.06701534      27.26101814      18.50601118
O       16.77601116      29.35801953      18.50601118
O       16.77601116      31.45502092      16.40900978
O       18.87301255      29.35801953      16.40900978
O       18.87301255      31.45502092      18.50601118
O       20.97001395      29.35801953      18.50601118
O       20.97001395      31.45502092      16.40900978
O       23.06701534      29.35801953      16.40900978
O       23.06701534      31.45502092      18.50601118
O       16.77601116      25.16401674      22.70001397
O       16.77601116      27.26101814      20.60301257
O       18.87301255      25.16401674      20.60301257
O       18.87301255      27.26101814      22.70001397
O       20.97001395      25.16401674      22.70001397
O       20.97001395      27.26101814      20.60301257
O       23.06701534      25.16401674      20.60301257
O       23.06701534      27.26101814      22.70001397
O       16.77601116      29.35801953      22.70001397
O       16.77601116      31.45502092      20.60301257
O       18.87301255      29.35801953      20.60301257
O       18.87301255      31.45502092      22.70001397
O       20.97001395      29.35801953      22.70001397
O       20.97001395      31.45502092      20.60301257
O       23.06701534      29.35801953      20.60301257
O       23.06701534      31.45502092      22.70001397
O       25.16401674      25.16401674      18.50601118
O       25.16401674      27.26101814      16.40900978
O       27.26101814      25.16401674      16.40900978
O       27.26101814      27.26101814      18.50601118
O       29.35801953      25.16401674      18.50601118
O       29.35801953      27.26101814      16.40900978
O       31.45502092      25.16401674      16.40900978
O       31.45502092      27.26101814      18.50601118
O       25.16401674      29.35801953      18.50601118
O       25.16401674      31.45502092      16.40900978
O       27.26101814      29.35801953      16.40900978
O       27.26101814      31.45502092      18.50601118
O       29.35801953      29.35801953      18.50601118
O       29.35801953      31.45502092      16.40900978
O       31.45502092      29.35801953      16.40900978
O       31.45502092      31.45502092      18.50601118
O       25.16401674      25.16401674      22.70001397
O       25.16401674      27.26101814      20.60301257
O       27.26101814      25.16401674      20.60301257
O       27.26101814      27.26101814      22.70001397
O       29.35801953      25.16401674      22.70001397
O       29.35801953      27.26101814      20.60301257
O       31.45502092      25.16401674      20.60301257
O       31.45502092      27.26101814      22.70001397
O       25.16401674      29.35801953      22.70001397
O       25.16401674      31.45502092      20.60301257
O       27.26101814      29.35801953      20.60301257
O       27.26101814      31.45502092      22.70001397
O       29.35801953      29.35801953      22.70001397
O       29.35801953      31.45502092      20.60301257
O       31.45502092      29.35801953      20.60301257
O       31.45502092      31.45502092      22.70001397
O       16.77601116      16.77601116      26.89401676
O       16.77601116      18.87301255      24.79701536
O       18.87301255      16.77601116      24.79701536
O       18.87301255      18.87301255      26.89401676
O       20.97001395      16.77601116      26.89401676
O       20.97001395      18.87301255      24.79701536
O       23.06701534      16.77601116      24.79701536
O       23.06701534      18.87301255      26.89401676
O       16.77601116      20.97001395      26.89401676
O       16.77601116      23.06701534      24.79701536
O       18.87301255      20.97001395      24.79701536
O       18.87301255      23.06701534      26.89401676
O       20.97001395      20.97001395      26.89401676
O       20.97001395      23.06701534      24.79701536
O       23.06701534      20.97001395      24.79701536
O       23.06701534      23.06701534      26.89401676
O       16.77601116      16.77601116      31.08801955
O       16.77601116      18.87301255      28.99101815
O       18.87301255      16.77601116      28.99101815
O       18.87301255      18.87301255      31.08801955
O       20.97001395      16.77601116      31.08801955
O       20.97001395      18.87301255      28.99101815
O       23.06701534      16.77601116      28.99101815
O       23.06701534      18.87301255      31.08801955
O       16.77601116      20.97001395      31.08801955
O       16.77601116      23.06701534      28.99101815
O       18.87301255      20.97001395      28.99101815
O       18.87301255      23.06701534      31.08801955
O       20.97001395      20.97001395      31.08801955
O       20.97001395      23.06701534      28.99101815
O       23.06701534      20.97001395      28.99101815
O       23.06701534      23.06701534      31.08801955
O       25.16401674      16.77601116      26.89401676
O       25.16401674      18.87301255      24.79701536
O       27.26101814      16.77601116      24.79701536
O       27.26101814      18.87301255      26.89401676
O       29.35801953      16.77601116      26.89401676
O       29.35801953      18.87301255      24.79701536
O       31.45502092      16.77601116      24.79701536
O       31.45502092      18.87301255      26.89401676
O       25.16401674      20.97001395      26.89401676
O       25.16401674      23.06701534      24.79701536
O       27.26101814      20.97001395      24.79701536
O       27.26101814      23.06701534      26.89401676
O       29.35801953      20.97001395      26.89401676
O       29.35801953      23.06701534      24.79701536
O       31.45502092      20.97001395      24.79701536
O       31.45502092      23.06701534      26.89401676
O       25.16401674      16.77601116      31.08801955
O       25.16401674      18.87301255      28.99101815
O       27.26101814      16.77601116      28.99101815
O       27.26101814      18.87301255      31.08801955
O       29.35801953      16.77601116      31.08801955
O       29.35801953      18.87301255      28.99101815
O       31.45502092      16.77601116      28.99101815
O       31.45502092      18.87301255      31.08801955
O       25.16401674      20.97001395      31.08801955
O       25.16401674      23.06701534      28.99101815
O       27.26101814      20.97001395      28.99101815
O       27.26101814      23.06701534      31.08801955
O       29.35801953      20.97001395      31.08801955
O       29.35801953      23.06701534      28.99101815
O       31.45502092      20.97001395      28.99101815
O       31.45502092      23.06701534      31.08801955
O       16.77601116      25.16401674      26.89401676
O       16.77601116      27.26101814      24.79701536
O       18.87301255      25.16401674      24.79701536
O       18.87301255      27.26101814      26.89401676
O       20.97001395      25.16401674      26.89401676
O       20.97001395      27.26101814      24.79701536
O       23.06701534      25.16401674      24.79701536
O       23.06701534      27.26101814      26.89401676
O       16.77601116      29.35801953      26.89401676
O       16.77601116      31.45502092      24.79701536
O       18.87301255      29.35801953      24.79701536
O       18.87301255      31.45502092      26.89401676
O       20.97001395      29.35801953      26.89401676
O       20.97001395      31.45502092      24.79701536
O       23.06701534      29.35801953      24.79701536
O       23.06701534      31.45502092      26.89401676
O       16.77601116      25.16401674      31.08801955
O       16.77601116      27.26101814      28.99101815
O       18.87301255      25.16401674      28.99101815
O       18.87301255      27.26101814      31.08801955
O       20.97001395      25.16401674      31.08801955
O       20.97001395      27.26101814      28.99101815
O       23.06701534      25.16401674      28.99101815
O       23.06701534      27.26101814      31.08801955
O       16.77601116      29.35801953      31.08801955
O       16.77601116      31.45502092      28.99101815
O       18.87301255      29.35801953      28.99101815
O       18.87301255      31.45502092      31.08801955
O       20.97001395      29.35801953      31.08801955
O       20.97001395      31.45502092      28.99101815
O       23.06701534      29.35801953      28.99101815
O       23.06701534      31.45502092      31.08801955
O       25.16401674      25.16401674      26.89401676
O       25.16401674      27.26101814      24.79701536
O       27.26101814      25.16401674      24.79701536
O       27.26101814      27.26101814      26.89401676
O       29.35801953      25.16401674      26.89401676
O       29.35801953      27.26101814      24.79701536
O       31.45502092      25.16401674      24.79701536
O       31.45502092      27.26101814      26.89401676
O       25.16401674      29.35801953      26.89401676
O       25.16401674      31.45502092      24.79701536
O       27.26101814      29.35801953      24.79701536
O       27.26101814      31.45502092      26.89401676
O       29.35801953      29.35801953      26.89401676
O       29.35801953      31.45502092      24.79701536
O       31.45502092      29.35801953      24.79701536
O       31.45502092      31.45502092      26.89401676
O       25.16401674      25.16401674      31.08801955
O       25.16401674      27.26101814      28.99101815
O       27.26101814      25.16401674      28.99101815
O       27.26101814      27.26101814      31.08801955
O       29.35801953      25.16401674      31.08801955
O       29.35801953      27.26101814      28.99101815
O       31.45502092      25.16401674      28.99101815
O       31.45502092      27.26101814      31.08801955
O       25.16401674      29.35801953      31.08801955
O       25.16401674      31.45502092      28.99101815
O       27.26101814      29.35801953      28.99101815
O       27.26101814      31.45502092      31.08801955
O       29.35801953      29.35801953      31.08801955
O       29.35801953      31.45502092      28.99101815
O       31.45502092      29.35801953      28.99101815
O       31.45502092      31.45502092      31.08801955
O        0.00000000       0.00000000      35.28202234
O        0.00000000       2.09700139      33.18502094
O        2.09700139       0.00000000      33.18502094
O        2.09700139       2.09700139      35.28202234
O        4.19400279       0.00000000      35.28202234
O        4.19400279       2.09700139      33.18502094
O        6.29100419       0.00000000      33.18502094
O        6.29100419       2.09700139      35.28202234
O        0.00000000       4.19400279      35.28202234
O        0.00000000       6.29100419      33.18502094
O        2.09700139       4.19400279      33.18502094
O        2.09700139       6.29100419      35.28202234
O        4.19400279       4.19400279      35.28202234
O        4.19400279       6.29100419      33.18502094
O        6.29100419       4.19400279      33.18502094
O        6.29100419       6.29100419      35.28202234
O        0.00000000       0.00000000      39.47602513
O        0.00000000       2.09700139      37.37902373
O        2.09700139       0.00000000      37.37902373
O        2.09700139       2.09700139      39.47602513
O        4.19400279       0.00000000      39.47602513
O        4.19400279       2.09700139      37.37902373
O        6.29100419       0.00000000      37.37902373
O        6.29100419       2.09700139      39.47602513
O        0.00000000       4.19400279      39.47602513
O        0.00000000       6.29100419      37.37902373
O        2.09700139       4.19400279      37.37902373
O        2.09700139       6.29100419      39.47602513
O        4.19400279       4.19400279      39.47602513
O        4.19400279       6.29100419      37.37902373
O        6.29100419       4.19400279      37.37902373
O        6.29100419       6.29100419      39.47602513
O        8.38800558       0.00000000      35.28202234
O        8.38800558       2.09700139      33.18502094
O       10.48500697       0.00000000      33.18502094
O       10.48500697       2.09700139      35.28202234
O       12.58200837       0.00000000      35.28202234
O       12.58200837       2.09700139      33.18502094
O       14.67900976       0.00000000      33.18502094
O       14.67900976       2.09700139      35.28202234
O        8.38800558       4.19400279      35.28202234
O        8.38800558       6.29100419      33.18502094
O       10.48500697       4.19400279      33.18502094
O       10.48500697       6.29100419      35.28202234
O       12.58200837       4.19400279      35.28202234
O       12.58200837       6.29100419      33.18502094
O       14.67900976       4.19400279      33.18502094
O       14.67900976       6.29100419      35.28202234
O        8.38800558       0.00000000      39.47602513
O        8.38800558       2.09700139      37.37902373
O       10.48500697       0.00000000      37.37902373
O       10.48500697       2.09700139      39.47602513
O       12.58200837       0.00000000      39.47602513
O       12.58200837       2.09700139      37.37902373
O       14.67900976       0.00000000      37.37902373
O       14.67900976       2.09700139      39.47602513
O        8.38800558       4.19400279      39.47602513
O        8.38800558       6.29100419      37.37902373
O       10.48500697       4.19400279      37.37902373
O       10.48500697       6.29100419      39.47602513
O       12.58200837       4.19400279      39.47602513
O       12.58200837       6.29100419      37.37902373
O       14.67900976       4.19400279      37.37902373
O       14.67900976       6.29100419      39.47602513
O        0.00000000       8.38800558      35.28202234
O        0.00000000      10.48500697      33.18502094
O        2.09700139       8.38800558      33.18502094
O        2.09700139      10.48500697      35.28202234
O        4.19400279       8.38800558      35.28202234
O        4.19400279      10.48500697      33.18502094
O        6.29100419       8.38800558      33.18502094
O        6.29100419      10.48500697      35.28202234
O        0.00000000      12.58200837      35.28202234
O        0.00000000      14.67900976      33.18502094
O        2.09700139      12.58200837      33.18502094
O        2.09700139      14.67900976      35.28202234
O        4.19400279      12.58200837      35.28202234
O        4.19400279      14.67900976      33.18502094
O        6.29100419      12.58200837      33.18502094
O        6.29100419      14.67900976      35.28202234
O        0.00000000       8.38800558      39.47602513
O        0.00000000      10.48500697      37.37902373
O        2.09700139       8.38800558      37.37902373
O        2.09700139      10.48500697      39.47602513
O        4.19400279       8.38800558      39.47602513
O        4.19400279      10.48500697      37.37902373
O        6.29100419       8.38800558      37.37902373
O        6.29100419      10.48500697      39.47602513
O        0.00000000      12.58200837      39.47602513
O        0.00000000      14.67900976      37.37902373
O        2.09700139      12.58200837      37.37902373
O        2.09700139      14.67900976      39.47602513
O        4.19400279      12.58200837      39.47602513
O        4.19400279      14.67900976      37.37902373
O        6.29100419      12.58200837      37.37902373
O        6.29100419      14.67900976      39.47602513
O        8.38800558       8.38800558      35.28202234
O        8.38800558      10.48500697      33.18502094
O       10.48500697       8.38800558      33.18502094
O       10.48500697      10.48500697      35.28202234
O       12.58200837       8.38800558      35.28202234
O       12.58200837      10.48500697      33.18502094
O       14.67900976       8.38800558      33.18502094
O       14.67900976      10.48500697      35.28202234
O        8.38800558      12.58200837      35.28202234
O        8.38800558      14.67900976      33.18502094
O       10.48500697      12.58200837      33.18502094
O       10.48500697      14.67900976      35.28202234
O       12.58200837      12.58200837      35.28202234
O       12.58200837      14.67900976      33.18502094
O       14.67900976      12.58200837      33.18502094
O       14.67900976      14.67900976      35.28202234
O        8.38800558       8.38800558      39.47602513
O        8.38800558      10.48500697      37.37902373
O       10.48500697       8.38800558      37.37902373
O       10.48500697      10.48500697      39.47602513
O       12.58200837       8.38800558      39.47602513
O       12.58200837      10.48500697      37.37902373
O       14.67900976       8.38800558      37.37902373
O       14.67900976      10.48500697      39.47602513
O        8.38800558      12.58200837      39.47602513
O        8.38800558      14.67900976      37.37902373
O       10.48500697      12.58200837      37.37902373
O       10.48500697      14.67900976      39.47602513
O       12.58200837      12.58200837      39.47602513
O       12.58200837      14.67900976      37.37902373
O       14.67900976      12.58200837      37.37902373
O       14.67900976      14.67900976      39.47602513
O        0.00000000       0.00000000      43.67002792
O        0.00000000       2.09700139      41.57302652
O        2.09700139       0.00000000      41.57302652
O        2.09700139       2.09700139      43.67002792
O        4.19400279       0.00000000      43.67002792
O        4.19400279       2.09700139      41.57302652
O        6.29100419       0.00000000      41.57302652
O        6.29100419       2.09700139      43.67002792
O        0.00000000       4.19400279      43.67002792
O        0.00000000       6.29100419      41.57302652
O        2.09700139       4.19400279      41.57302652
O        2.09700139       6.29100419      43.67002792
O        4.19400279       4.19400279      43.67002792
O        4.19400279       6.29100419      41.57302652
O        6.29100419       4.19400279      41.57302652
O        6.29100419       6.29100419      43.67002792
O        0.00000000       0.00000000      47.86403071
O        0.00000000       2.09700139      45.76702931
O        2.09700139       0.00000000      45.76702931
O        2.09700139       2.09700139      47.86403071
O        4.19400279       0.00000000      47.86403071
O        4.19400279       2.09700139      45.76702931
O        6.29100419       0.00000000      45.76702931
O        6.29100419       2.09700139      47.86403071
O        0.00000000       4.19400279      47.86403071
O        0.00000000       6.29100419      45.76702931
O        2.09700139       4.19400279      45.76702931
O        2.09700139       6.29100419      47.86403071
O        4.19400279       4.19400279      47.86403071
O        4.19400279       6.29100419      45.76702931
O        6.29100419       4.19400279      45.76702931
O        6.29100419       6.29100419      47.86403071
O        8.38800558       0.00000000      43.67002792
O        8.38800558       2.09700139      41.57302652
O       10.48500697       0.00000000      41.57302652
O       10.48500697       2.09700139      43.67002792
O       12.58200837       0.00000000      43.67002792
O       12.58200837       2.09700139      41.57302652
O       14.67900976       0.00000000      41.57302652
O       14.67900976       2.09700139      43.67002792
O        8.38800558       4.19400279      43.67002792
O        8.38800558       6.29100419      41.57302652
O       10.48500697       4.19400279      41.57302652
O       10.48500697       6.29100419      43.67002792
O       12.58200837       4.19400279      43.67002792
O       12.58200837       6.29100419      41.57302652
O       14.67900976       4.19400279      41.57302652
O       14.67900976       6.29100419      43.67002792
O        8.38800558       0.00000000      47.86403071
O        8.38800558       2.09700139      45.76702931
O       10.48500697       0.00000000      45.76702931
O       10.48500697       2.09700139      47.86403071
O       12.58200837       0.00000000      47.86403071
O       12.58200837       2.09700139      45.76702931
O       14.67900976       0.00000000      45.76702931
O       14.67900976       2.09700139      47.86403071
O        8.38800558       4.19400279      47.86403071
O        8.38800558       6.29100419      45.76702931
O       10.48500697       4.19400279      45.76702931
O       10.48500697       6.29100419      47.86403071
O       12.58200837       4.19400279      47.86403071
O       12.58200837       6.29100419      45.76702931
O       14.67900976       4.19400279      45.76702931
O       14.67900976       6.29100419      47.86403071
O        0.00000000       8.38800558      43.67002792
O        0.00000000      10.48500697      41.57302652
O        2.09700139       8.38800558      41.57302652
O        2.09700139      10.48500697      43.67002792
O        4.19400279       8.38800558      43.67002792
O        4.19400279      10.48500697      41.57302652
O        6.29100419       8.38800558      41.57302652
O        6.29100419      10.48500697      43.67002792
O        0.00000000      12.58200837      43.67002792
O        0.00000000      14.67900976      41.57302652
O        2.09700139      12.58200837      41.57302652
O        2.09700139      14.67900976      43.67002792
O        4.19400279      12.58200837      43.67002792
O        4.19400279      14.67900976      41.57302652
O        6.29100419      12.58200837      41.57302652
O        6.29100419      14.67900976      43.67002792
O        0.00000000       8.38800558      47.86403071
O        0.00000000      10.48500697      45.76702931
O        2.09700139       8.38800558      45.76702931
O        2.09700139      10.48500697      47.86403071
O        4.19400279       8.38800558      47.86403071
O        4.19400279      10.48500697      45.76702931
O        6.29100419       8.38800558      45.76702931
O        6.29100419      10.48500697      47.86403071
O        0.00000000      12.58200837      47.86403071
O        0.00000000      14.67900976      45.76702931
O        2.09700139      12.58200837      45.76702931
O        2.09700139      14.67900976      47.86403071
O        4.19400279      12.58200837      47.86403071
O        4.19400279      14.67900976      45.76702931
O        6.29100419      12.58200837      45.76702931
O        6.29100419      14.67900976      47.86403071
O        8.38800558       8.38800558      43.67002792
O        8.38800558      10.48500697      41.57302652
O       10.48500697       8.38800558      41.57302652
O       10.48500697      10.48500697      43.67002792
O       12.58200837       8.38800558      43.67002792
O       12.58200837      10.48500697      41.57302652
O       14.67900976       8.38800558      41.57302652
O       14.67900976      10.48500697      43.67002792
O        8.38800558      12.58200837      43.67002792
O        8.38800558      14.67900976      41.57302652
O       10.48500697      12.58200837      41.57302652
O       10.48500697      14.67900976      43.67002792
O       12.58200837      12.58200837      43.67002792
O       12.58200837      14.67900976      41.57302652
O       14.67900976      12.58200837      41.57302652
O       14.67900976      14.67900976      43.67002792
O        8.38800558       8.38800558      47.86403071
O        8.38800558      10.48500697      45.76702931
O       10.48500697       8.38800558      45.76702931
O       10.48500697      10.48500697      47.86403071
O       12.58200837       8.38800558      47.86403071
O       12.58200837      10.48500697      45.76702931
O       14.67900976       8.38800558      45.76702931
O       14.67900976      10.48500697      47.86403071
O        8.38800558      12.58200837      47.86403071
O        8.38800558      14.67900976      45.76702931
O       10.48500697      12.58200837      45.76702931
O       10.48500697      14.67900976      47.86403071
O       12.58200837      12.58200837      47.86403071
O       12.58200837      14.67900976      45.76702931
O       14.67900976      12.58200837      45.76702931
O       14.67900976      14.67900976      47.86403071
O       16.77601116       0.00000000      35.28202234
O       16.77601116       2.09700139      33.18502094
O       18.87301255       0.00000000      33.18502094
O       18.87301255       2.09700139      35.28202234
O       20.97001395       0.00000000      35.28202234
O       20.97001395       2.09700139      33.18502094
O       23.06701534       0.00000000      33.18502094
O       23.06701534       2.09700139      35.28202234
O       16.77601116       4.19400279      35.28202234
O       16.77601116       6.29100419      33.18502094
O       18.87301255       4.19400279      33.18502094
O       18.87301255       6.29100419      35.28202234
O       20.97001395       4.19400279      35.28202234
O       20.97001395       6.29100419      33.18502094
O       23.06701534       4.19400279      33.18502094
O       23.06701534       6.29100419      35.28202234
O       16.77601116       0.00000000      39.47602513
O       16.77601116       2.09700139      37.37902373
O       18.87301255       0.00000000      37.37902373
O       18.87301255       2.09700139      39.47602513
O       20.97001395       0.00000000      39.47602513
O       20.97001395       2.09700139      37.37902373
O       23.06701534       0.00000000      37.37902373
O       23.06701534       2.09700139      39.47602513
O       16.77601116       4.19400279      39.47602513
O       16.77601116       6.29100419      37.37902373
O       18.87301255       4.19400279      37.37902373
O       18.87301255       6.29100419      39.47602513
O       20.97001395       4.19400279      39.47602513
O       20.97001395       6.29100419      37.37902373
O       23.06701534       4.19400279      37.37902373
O       23.06701534       6.29100419      39.47602513
O       25.16401674       0.00000000      35.28202234
O       25.16401674       2.09700139      33.18502094
O       27.26101814       0.00000000      33.18502094
O       27.26101814       2.09700139      35.28202234
O       29.35801953       0.00000000      35.28202234
O       29.35801953       2.09700139      33.18502094
O       31.45502092       0.00000000      33.18502094
O       31.45502092       2.09700139      35.28202234
O       25.16401674       4.19400279      35.28202234
O       25.16401674       6.29100419      33.18502094
O       27.26101814       4.19400279      33.18502094
O       27.26101814       6.29100419      35.28202234
O       29.35801953       4.19400279      35.28202234
O       29.35801953       6.29100419      33.18502094
O       31.45502092       4.19400279      33.18502094
O       31.45502092       6.29100419      35.28202234
O       25.16401674       0.00000000      39.47602513
O       25.16401674       2.09700139      37.37902373
O       27.26101814       0.00000000      37.37902373
O       27.26101814       2.09700139      39.47602513
O       29.35801953       0.00000000      39.47602513
O       29.35801953       2.09700139      37.37902373
O       31.45502092       0.00000000      37.37902373
O       31.45502092       2.09700139      39.47602513
O       25.16401674       4.19400279      39.47602513
O       25.16401674       6.29100419      37.37902373
O       27.26101814       4.19400279      37.37902373
O       27.26101814       6.29100419      39.47602513
O       29.35801953       4.19400279      39.47602513
O       29.35801953       6.29100419      37.37902373
O       31.45502092       4.19400279      37.37902373
O       31.45502092       6.29100419      39.47602513
O       16.77601116       8.38800558      35.28202234
O       16.77601116      10.48500697      33.18502094
O       18.87301255       8.38800558      33.18502094
O       18.87301255      10.48500697      35.28202234
O       20.97001395       8.38800558      35.28202234
O       20.97001395      10.48500697      33.18502094
O       23.06701534       8.38800558      33.18502094
O       23.06701534      10.48500697      35.28202234
O       16.77601116      12.58200837      35.28202234
O       16.77601116      14.67900976      33.18502094
O       18.87301255      12.58200837      33.18502094
O       18.87301255      14.67900976      35.28202234
O       20.97001395      12.58200837      35.28202234
O       20.97001395      14.67900976      33.18502094
O       23.06701534      12.58200837      33.18502094
O       23.06701534      14.67900976      35.28202234
O       16.77601116       8.38800558      39.47602513
O       16.77601116      10.48500697      37.37902373
O       18.87301255       8.38800558      37.37902373
O       18.87301255      10.48500697      39.47602513
O       20.97001395       8.38800558      39.47602513
O       20.97001395      10.48500697      37.37902373
O       23.06701534       8.38800558      37.37902373
O       23.06701534      10.48500697      39.47602513
O       16.77601116      12.58200837      39.47602513
O       16.77601116      14.67900976      37.37902373
O       18.87301255      12.58200837      37.37902373
O       18.87301255      14.67900976      39.47602513
O       20.97001395      12.58200837      39.47602513
O       20.97001395      14.67900976      37.37902373
O       23.06701534      12.58200837      37.37902373
O       23.06701534      14.67900976      39.47602513
O       25.16401674       8.38800558      35.28202234
O       25.16401674      10.48500697      33.18502094
O       27.26101814       8.38800558      33.18502094
O       27.26101814      10.48500697      35.28202234
O       29.35801953       8.38800558      35.28202234
O       29.35801953      10.48500697      33.18502094
O       31.45502092       8.38800558      33.18502094
O       31.45502092      10.48500697      35.28202234
O       25.16401674      12.58200837      35.28202234
O       25.16401674      14.67900976      33.18502094
O       27.26101814      12.58200837      33.18502094
O       27.26101814      14.67900976      35.28202234
O       29.35801953      12.58200837      35.28202234
O       29.35801953      14.67900976      33.18502094
O       31.45502092      12.58200837      33.18502094
O       31.45502092      14.67900976      35.28202234
O       25.16401674       8.38800558      39.47602513
O       25.16401674      10.48500697      37.37902373
O       27.26101814       8.38800558      37.37902373
O       27.26101814      10.48500697      39.47602513
O       29.35801953       8.38800558      39.47602513
O       29.35801953      10.48500697      37.37902373
O       31.45502092       8.38800558      37.37902373
O       31.45502092      10.48500697      39.47602513
O       25.16401674      12.58200837      39.47602513
O       25.16401674      14.67900976      37.37902373
O       27.26101814      12.58200837      37.37902373
O       27.26101814      14.67900976      39.47602513
O       29.35801953      12.58200837      39.47602513
O       29.35801953      14.67900976      37.37902373
O       31.45502092      12.58200837      37.37902373
O       31.45502092      14.67900976      39.47602513
O       16.77601116       0.00000000      43.67002792
O       16.77601116       2.09700139      41.57302652
O       18.87301255       0.00000000      41.57302652
O       18.87301255       2.09700139      43.67002792
O       20.97001395       0.00000000      43.67002792
O       20.97001395       2.09700139      41.57302652
O       23.06701534       0.00000000      41.57302652
O       23.06701534       2.09700139      43.67002792
O       16.77601116       4.19400279      43.67002792
O       16.77601116       6.29100419      41.57302652
O       18.87301255       4.19400279      41.57302652
O       18.87301255       6.29100419      43.67002792
O       20.97001395       4.19400279      43.67002792
O       20.97001395       6.29100419      41.57302652
O       23.06701534       4.19400279      41.57302652
O       23.06701534       6.29100419      43.67002792
O       16.77601116       0.00000000      47.86403071
O       16.77601116       2.09700139      45.76702931
O       18.87301255       0.00000000      45.76702931
O       18.87301255       2.09700139      47.86403071
O       20.97001395       0.00000000      47.86403071
O       20.97001395       2.09700139      45.76702931
O       23.06701534       0.00000000      45.76702931
O       23.06701534       2.09700139      47.86403071
O       16.77601116       4.19400279      47.86403071
O       16.77601116       6.29100419      45.76702931
O       18.87301255       4.19400279      45.76702931
O       18.87301255       6.29100419      47.86403071
O       20.97001395       4.19400279      47.86403071
O       20.97001395       6.29100419      45.76702931
O       23.06701534       4.19400279      45.76702931
O       23.06701534       6.29100419      47.86403071
O       25.16401674       0.00000000      43.67002792
O       25.16401674       2.09700139      41.57302652
O       27.26101814       0.00000000      41.57302652
O       27.26101814       2.09700139      43.67002792
O       29.35801953       0.00000000      43.67002792
O       29.35801953       2.09700139      41.57302652
O       31.45502092       0.00000000      41.57302652
O       31.45502092       2.09700139      43.67002792
O       25.16401674       4.19400279      43.67002792
O       25.16401674       6.29100419      41.57302652
O       27.26101814       4.19400279      41.57302652
O       27.26101814       6.29100419      43.67002792
O       29.35801953       4.19400279      43.67002792
O       29.35801953       6.29100419      41.57302652
O       31.45502092       4.19400279      41.57302652
O       31.45502092       6.29100419      43.67002792
O       25.16401674       0.00000000      47.86403071
O       25.16401674       2.09700139      45.76702931
O       27.26101814       0.00000000      45.76702931
O       27.26101814       2.09700139      47.86403071
O       29.35801953       0.00000000      47.86403071
O       29.35801953       2.09700139      45.76702931
O       31.45502092       0.00000000      45.76702931
O       31.45502092       2.09700139      47.86403071
O       25.16401674       4.19400279      47.86403071
O       25.16401674       6.29100419      45.76702931
O       27.26101814       4.19400279      45.76702931
O       27.26101814       6.29100419      47.86403071
O       29.35801953       4.19400279      47.86403071
O       29.35801953       6.29100419      45.76702931
O       31.45502092       4.19400279      45.76702931
O       31.45502092       6.29100419      47.86403071
O       16.77601116       8.38800558      43.67002792
O       16.77601116      10.48500697      41.57302652
O       18.87301255       8.38800558      41.57302652
O       18.87301255      10.48500697      43.67002792
O       20.97001395       8.38800558      43.67002792
O       20.97001395      10.48500697      41.57302652
O       23.06701534       8.38800558      41.57302652
O       23.06701534      10.48500697      43.67002792
O       16.77601116      12.58200837      43.67002792
O       16.77601116      14.67900976      41.57302652
O       18.87301255      12.58200837      41.57302652
O       18.87301255      14.67900976      43.67002792
O       20.97001395      12.58200837      43.67002792
O       20.97001395      14.67900976      41.57302652
O       23.06701534      12.58200837      41.57302652
O       23.06701534      14.67900976      43.67002792
O       16.77601116       8.38800558      47.86403071
O       16.77601116      10.48500697      45.76702931
O       18.87301255       8.38800558      45.76702931
O       18.87301255      10.48500697      47.86403071
O       20.97001395       8.38800558      47.86403071
O       20.97001395      10.48500697      45.76702931
O       23.06701534       8.38800558      45.76702931
O       23.06701534      10.48500697      47.86403071
O       16.77601116      12.58200837      47.86403071
O       16.77601116      14.67900976      45.76702931
O       18.87301255      12.58200837      45.76702931
O       18.87301255      14.67900976      47.86403071
O       20.97001395      12.58200837      47.86403071
O       20.97001395      14.67900976      45.76702931
O       23.06701534      12.58200837      45.76702931
O       23.06701534      14.67900976      47.86403071
O       25.16401674       8.38800558      43.67002792
O       25.16401674      10.48500697      41.57302652
O       27.26101814       8.38800558      41.57302652
O       27.26101814      10.48500697      43.67002792
O       29.35801953       8.38800558      43.67002792
O       29.35801953      10.48500697      41.57302652
O       31.45502092       8.38800558      41.57302652
O       31.45502092      10.48500697      43.67002792
O       25.16401674      12.58200837      43.67002792
O       25.16401674      14.67900976      41.57302652
O       27.26101814      12.58200837      41.57302652
O       27.26101814      14.67900976      43.67002792
O       29.35801953      12.58200837      43.67002792
O       29.35801953      14.67900976      41.57302652
O       31.45502092      12.58200837      41.57302652
O       31.45502092      14.67900976      43.67002792
O       25.16401674       8.38800558      47.86403071
O       25.16401674      10.48500697      45.76702931
O       27.26101814       8.38800558      45.76702931
O       27.26101814      10.48500697      47.86403071
O       29.35801953       8.38800558      47.86403071
O       29.35801953      10.48500697      45.76702931
O       31.45502092       8.38800558      45.76702931
O       31.45502092      10.48500697      47.86403071
O       25.16401674      12.58200837      47.86403071
O       25.16401674      14.67900976      45.76702931
O       27.26101814      12.58200837      45.76702931
O       27.26101814      14.67900976      47.86403071
O       29.35801953      12.58200837      47.86403071
O       29.35801953      14.67900976      45.76702931
O       31.45502092      12.58200837      45.76702931
O       31.45502092      14.67900976      47.86403071
O        0.00000000      16.77601116      35.28202234
O        0.00000000      18.87301255      33.18502094
O        2.09700139      16.77601116      33.18502094
O        2.09700139      18.87301255      35.28202234
O        4.19400279      16.77601116      35.28202234
O        4.19400279      18.87301255      33.18502094
O        6.29100419      16.77601116      33.18502094
O        6.29100419      18.87301255      35.28202234
O        0.00000000      20.97001395      35.28202234
O        0.00000000      23.06701534      33.18502094
O        2.09700139      20.97001395      33.18502094
O        2.09700139      23.06701534      35.28202234
O        4.19400279      20.97001395      35.28202234
O        4.19400279      23.06701534      33.18502094
O        6.29100419      20.97001395      33.18502094
O        6.29100419      23.06701534      35.28202234
O        0.00000000      16.77601116      39.47602513
O        0.00000000      18.87301255      37.37902373
O        2.09700139      16.77601116      37.37902373
O        2.09700139      18.87301255      39.47602513
O        4.19400279      16.77601116      39.47602513
O        4.19400279      18.87301255      37.37902373
O        6.29100419      16.77601116      37.37902373
O        6.29100419      18.87301255      39.47602513
O        0.00000000      20.97001395      39.47602513
O        0.00000000      23.06701534      37.37902373
O        2.09700139      20.97001395      37.37902373
O        2.09700139      23.06701534      39.47602513
O        4.19400279      20.97001395      39.47602513
O        4.19400279      23.06701534      37.37902373
O        6.29100419      20.97001395      37.37902373
O        6.29100419      23.06701534      39.47602513
O        8.38800558      16.77601116      35.28202234
O        8.38800558      18.87301255      33.18502094
O       10.48500697      16.77601116      33.18502094
O       10.48500697      18.87301255      35.28202234
O       12.58200837      16.77601116      35.28202234
O       12.58200837      18.87301255      33.18502094
O       14.67900976      16.77601116      33.18502094
O       14.67900976      18.87301255      35.28202234
O        8.38800558      20.97001395      35.28202234
O        8.38800558      23.06701534      33.18502094
O       10.48500697      20.97001395      33.18502094
O       10.48500697      23.06701534      35.28202234
O       12.58200837      20.97001395      35.28202234
O       12.58200837      23.06701534      33.18502094
O       14.67900976      20.97001395      33.18502094
O       14.67900976      23.06701534      35.28202234
O        8.38800558      16.77601116      39.47602513
O        8.38800558      18.87301255      37.37902373
O       10.48500697      16.77601116      37.37902373
O       10.48500697      18.87301255      39.47602513
O       12.58200837      16.77601116      39.47602513
O       12.58200837      18.87301255      37.37902373
O       14.67900976      16.77601116      37.37902373
O       14.67900976      18.87301255      39.47602513
O        8.38800558      20.97001395      39.47602513
O        8.38800558      23.06701534      37.37902373
O       10.48500697      20.97001395      37.37902373
O       10.48500697      23.06701534      39.47602513
O       12.58200837      20.97001395      39.47602513
O       12.58200837      23.06701534      37.37902373
O       14.67900976      20.97001395      37.37902373
O       14.67900976      23.06701534      39.47602513
O        0.00000000      25.16401674      35.28202234
O        0.00000000      27.26101814      33.18502094
O        2.09700139      25.16401674      33.18502094
O        2.09700139      27.26101814      35.28202234
O        4.19400279      25.16401674      35.28202234
O        4.19400279      27.26101814      33.18502094
O        6.29100419      25.16401674      33.18502094
O        6.29100419      27.26101814      35.28202234
O        0.00000000      29.35801953      35.28202234
O        0.00000000      31.45502092      33.18502094
O        2.09700139      29.35801953      33.18502094
O        2.09700139      31.45502092      35.28202234
O        4.19400279      29.35801953      35.28202234
O        4.19400279      31.45502092      33.18502094
O        6.29100419      29.35801953      33.18502094
O        6.29100419      31.45502092      35.28202234
O        0.00000000      25.16401674      39.47602513
O        0.00000000      27.26101814      37.37902373
O        2.09700139      25.16401674      37.37902373
O        2.09700139      27.26101814      39.47602513
O        4.19400279      25.16401674      39.47602513
O        4.19400279      27.26101814      37.37902373
O        6.29100419      25.16401674      37.37902373
O        6.29100419      27.26101814      39.47602513
O        0.00000000      29.35801953      39.47602513
O        0.00000000      31.45502092      37.37902373
O        2.09700139      29.35801953      37.37902373
O        2.09700139      31.45502092      39.47602513
O        4.19400279      29.35801953      39.47602513
O        4.19400279      31.45502092      37.37902373
O        6.29100419      29.35801953      37.37902373
O        6.29100419      31.45502092      39.47602513
O        8.38800558      25.16401674      35.28202234
O        8.38800558      27.26101814      33.18502094
O       10.48500697      25.16401674      33.18502094
O       10.48500697      27.26101814      35.28202234
O       12.58200837      25.16401674      35.28202234
O       12.58200837      27.26101814      33.18502094
O       14.67900976      25.16401674      33.18502094
O       14.67900976      27.26101814      35.28202234
O        8.38800558      29.35801953      35.28202234
O        8.38800558      31.45502092      33.18502094
O       10.48500697      29.35801953      33.18502094
O       10.48500697      31.45502092      35.28202234
O       12.58200837      29.35801953      35.28202234
O       12.58200837      31.45502092      33.18502094
O       14.67900976      29.35801953      33.18502094
O       14.67900976      31.45502092      35.28202234
O        8.38800558      25.16401674      39.47602513
O        8.38800558      27.26101814      37.37902373
O       10.48500697      25.16401674      37.37902373
O       10.48500697      27.26101814      39.47602513
O       12.58200837      25.16401674      39.47602513
O       12.58200837      27.26101814      37.37902373
O       14.67900976      25.16401674      37.37902373
O       14.67900976      27.26101814      39.47602513
O        8.38800558      29.35801953      39.47602513
O        8.38800558      31.45502092      37.37902373
O       10.48500697      29.35801953      37.37902373
O       10.48500697      31.45502092      39.47602513
O       12.58200837      29.35801953      39.47602513
O       12.58200837      31.45502092      37.37902373
O       14.67900976      29.35801953      37.37902373
O       14.67900976      31.45502092      39.47602513
O        0.00000000      16.77601116      43.67002792
O        0.00000000      18.87301255      41.57302652
O        2.09700139      16.77601116      41.57302652
O        2.09700139      18.87301255      43.67002792
O        4.19400279      16.77601116      43.67002792
O        4.19400279      18.87301255      41.57302652
O        6.29100419      16.77601116      41.57302652
O        6.29100419      18.87301255      43.67002792
O        0.00000000      20.97001395      43.67002792
O        0.00000000      23.06701534      41.57302652
O        2.09700139      20.97001395      41.57302652
O        2.09700139      23.06701534      43.67002792
O        4.19400279      20.97001395      43.67002792
O        4.19400279      23.06701534      41.57302652
O        6.29100419      20.97001395      41.57302652
O        6.29100419      23.06701534      43.67002792
O        0.00000000      16.77601116      47.86403071
O        0.00000000      18.87301255      45.76702931
O        2.09700139      16.77601116      45.76702931
O        2.09700139      18.87301255      47.86403071
O        4.19400279      16.77601116      47.86403071
O        4.19400279      18.87301255      45.76702931
O        6.29100419      16.77601116      45.76702931
O        6.29100419      18.87301255      47.86403071
O        0.00000000      20.97001395      47.86403071
O        0.00000000      23.06701534      45.76702931
O        2.09700139      20.97001395      45.76702931
O        2.09700139      23.06701534      47.86403071
O        4.19400279      20.97001395      47.86403071
O        4.19400279      23.06701534      45.76702931
O        6.29100419      20.97001395      45.76702931
O        6.29100419      23.06701534      47.86403071
O        8.38800558      16.77601116      43.67002792
O        8.38800558      18.87301255      41.57302652
O       10.48500697      16.77601116      41.57302652
O       10.48500697      18.87301255      43.67002792
O       12.58200837      16.77601116      43.67002792
O       12.58200837      18.87301255      41.57302652
O       14.67900976      16.77601116      41.57302652
O       14.67900976      18.87301255      43.67002792
O        8.38800558      20.97001395      43.67002792
O        8.38800558      23.06701534      41.57302652
O       10.48500697      20.97001395      41.57302652
O       10.48500697      23.06701534      43.67002792
O       12.58200837      20.97001395      43.67002792
O       12.58200837      23.06701534      41.57302652
O       14.67900976      20.97001395      41.57302652
O       14.67900976      23.06701534      43.67002792
O        8.38800558      16.77601116      47.86403071
O        8.38800558      18.87301255      45.76702931
O       10.48500697      16.77601116      45.76702931
O       10.48500697      18.87301255      47.86403071
O       12.58200837      16.77601116      47.86403071
O       12.58200837      18.87301255      45.76702931
O       14.67900976      16.77601116      45.76702931
O       14.67900976      18.87301255      47.86403071
O        8.38800558      20.97001395      47.86403071
O        8.38800558      23.06701534      45.76702931
O       10.48500697      20.97001395      45.76702931
O       10.48500697      23.06701534      47.86403071
O       12.58200837      20.97001395      47.86403071
O       12.58200837      23.06701534      45.76702931
O       14.67900976      20.97001395      45.76702931
O       14.67900976      23.06701534      47.86403071
O        0.00000000      25.16401674      43.67002792
O        0.00000000      27.26101814      41.57302652
O        2.09700139      25.16401674      41.57302652
O        2.09700139      27.26101814      43.67002792
O        4.19400279      25.16401674      43.67002792
O        4.19400279      27.26101814      41.57302652
O        6.29100419      25.16401674      41.57302652
O        6.29100419      27.26101814      43.67002792
O        0.00000000      29.35801953      43.67002792
O        0.00000000      31.45502092      41.57302652
O        2.09700139      29.35801953      41.57302652
O        2.09700139      31.45502092      43.67002792
O        4.19400279      29.35801953      43.67002792
O        4.19400279      31.45502092      41.57302652
O        6.29100419      29.35801953      41.57302652
O        6.29100419      31.45502092      43.67002792
O        0.00000000      25.16401674      47.86403071
O        0.00000000      27.26101814      45.76702931
O        2.09700139      25.16401674      45.76702931
O        2.09700139      27.26101814      47.86403071
O        4.19400279      25.16401674      47.86403071
O        4.19400279      27.26101814      45.76702931
O        6.29100419      25.16401674      45.76702931
O        6.29100419      27.26101814      47.86403071
O        0.00000000      29.35801953      47.86403071
O        0.00000000      31.45502092      45.76702931
O        2.09700139      29.35801953      45.76702931
O        2.09700139      31.45502092      47.86403071
O        4.19400279      29.35801953      47.86403071
O        4.19400279      31.45502092      45.76702931
O        6.29100419      29.35801953      45.76702931
O        6.29100419      31.45502092      47.86403071
O        8.38800558      25.16401674      43.67002792
O        8.38800558      27.26101814      41.57302652
O       10.48500697      25.16401674      41.57302652
O       10.48500697      27.26101814      43.67002792
O       12.58200837      25.16401674      43.67002792
O       12.58200837      27.26101814      41.57302652
O       14.67900976      25.16401674      41.57302652
O       14.67900976      27.26101814      43.67002792
O        8.38800558      29.35801953      43.67002792
O        8.38800558      31.45502092      41.57302652
O       10.48500697      29.35801953      41.57302652
O       10.48500697      31.45502092      43.67002792
O       12.58200837      29.35801953      43.67002792
O       12.58200837      31.45502092      41.57302652
O       14.67900976      29.35801953      41.57302652
O       14.67900976      31.45502092      43.67002792
O        8.38800558      25.16401674      47.86403071
O        8.38800558      27.26101814      45.76702931
O       10.48500697      25.16401674      45.76702931
O       10.48500697      27.26101814      47.86403071
O       12.58200837      25.16401674      47.86403071
O       12.58200837      27.26101814      45.76702931
O       14.67900976      25.16401674      45.76702931
O       14.67900976      27.26101814      47.86403071
O        8.38800558      29.35801953      47.86403071
O        8.38800558      31.45502092      45.76702931
O       10.48500697      29.35801953      45.76702931
O       10.48500697      31.45502092      47.86403071
O       12.58200837      29.35801953      47.86403071
O       12.58200837      31.45502092      45.76702931
O       14.67900976      29.35801953      45.76702931
O       14.67900976      31.45502092      47.86403071
O       16.77601116      16.77601116      35.28202234
O       16.77601116      18.87301255      33.18502094
O       18.87301255      16.77601116      33.18502094
O       18.87301255      18.87301255      35.28202234
O       20.97001395      16.77601116      35.28202234
O       20.97001395      18.87301255      33.18502094
O       23.06701534      16.77601116      33.18502094
O       23.06701534      18.87301255      35.28202234
O       16.77601116      20.97001395      35.28202234
O       16.77601116      23.06701534      33.18502094
O       18.87301255      20.97001395      33.18502094
O       18.87301255      23.06701534      35.28202234
O       20.97001395      20.97001395      35.28202234
O       20.97001395      23.06701534      33.18502094
O       23.06701534      20.97001395      33.18502094
O       23.06701534      23.06701534      35.28202234
O       16.77601116      16.77601116      39.47602513
O       16.77601116      18.87301255      37.37902373
O       18.87301255      16.77601116      37.37902373
O       18.87301255      18.87301255      39.47602513
O       20.97001395      16.77601116      39.47602513
O       20.97001395      18.87301255      37.37902373
O       23.06701534      16.77601116      37.37902373
O       23.06701534      18.87301255      39.47602513
O       16.77601116      20.97001395      39.47602513
O       16.77601116      23.06701534      37.37902373
O       18.87301255      20.97001395      37.37902373
O       18.87301255      23.06701534      39.47602513
O       20.97001395      20.97001395      39.47602513
O       20.97001395      23.06701534      37.37902373
O       23.06701534      20.97001395      37.37902373
O       23.06701534      23.06701534      39.47602513
O       25.16401674      16.77601116      35.28202234
O       25.16401674      18.87301255      33.18502094
O       27.26101814      16.77601116      33.18502094
O       27.26101814      18.87301255      35.28202234
O       29.35801953      16.77601116      35.28202234
O       29.35801953      18.87301255      33.18502094
O       31.45502092      16.77601116      33.18502094
O       31.45502092      18.87301255      35.28202234
O       25.16401674      20.97001395      35.28202234
O       25.16401674      23.06701534      33.18502094
O       27.26101814      20.97001395      33.18502094
O       27.26101814      23.06701534      35.28202234
O       29.35801953      20.97001395      35.28202234
O       29.35801953      23.06701534      33.18502094
O       31.45502092      20.97001395      33.18502094
O       31.45502092      23.06701534      35.28202234
O       25.16401674      16.77601116      39.47602513
O       25.16401674      18.87301255      37.37902373
O       27.26101814      16.77601116      37.37902373
O       27.26101814      18.87301255      39.47602513
O       29.35801953      16.77601116      39.47602513
O       29.35801953      18.87301255      37.37902373
O       31.45502092      16.77601116      37.37902373
O       31.45502092      18.87301255      39.47602513
O       25.16401674      20.97001395      39.47602513
O       25.16401674      23.06701534      37.37902373
O       27.26101814      20.97001395      37.37902373
O       27.26101814      23.06701534      39.47602513
O       29.35801953      20.97001395      39.47602513
O       29.35801953      23.06701534      37.37902373
O       31.45502092      20.97001395      37.37902373
O       31.45502092      23.06701534      39.47602513
O       16.77601116      25.16401674      35.28202234
O       16.77601116      27.26101814      33.18502094
O       18.87301255      25.16401674      33.18502094
O       18.87301255      27.26101814      35.28202234
O       20.97001395      25.16401674      35.28202234
O       20.97001395      27.26101814      33.18502094
O       23.06701534      25.16401674      33.18502094
O       23.06701534      27.26101814      35.28202234
O       16.77601116      29.35801953      35.28202234
O       16.77601116      31.45502092      33.18502094
O       18.87301255      29.35801953      33.18502094
O       18.87301255      31.45502092      35.28202234
O       20.97001395      29.35801953      35.28202234
O       20.97001395      31.45502092      33.18502094
O       23.06701534      29.35801953      33.18502094
O       23.06701534      31.45502092      35.28202234
O       16.77601116      25.16401674      39.47602513
O       16.77601116      27.26101814      37.37902373
O       18.87301255      25.16401674      37.37902373
O       18.87301255      27.26101814      39.47602513
O       20.97001395      25.16401674      39.47602513
O       20.97001395      27.26101814      37.37902373
O       23.06701534      25.16401674      37.37902373
O       23.06701534      27.26101814      39.47602513
O       16.77601116      29.35801953      39.47602513
O       16.77601116      31.45502092      37.37902373
O       18.87301255      29.35801953      37.37902373
O       18.87301255      31.45502092      39.47602513
O       20.97001395      29.35801953      39.47602513
O       20.97001395      31.45502092      37.37902373
O       23.06701534      29.35801953      37.37902373
O       23.06701534      31.45502092      39.47602513
O       25.16401674      25.16401674      35.28202234
O       25.16401674      27.26101814      33.18502094
O       27.26101814      25.16401674      33.18502094
O       27.26101814      27.26101814      35.28202234
O       29.35801953      25.16401674      35.28202234
O       29.35801953      27.26101814      33.18502094
O       31.45502092      25.16401674      33.18502094
O       31.45502092      27.26101814      35.28202234
O       25.16401674      29.35801953      35.28202234
O       25.16401674      31.45502092      33.18502094
O       27.26101814      29.35801953      33.18502094
O       27.26101814      31.45502092      35.28202234
O       29.35801953      29.35801953      35.28202234
O       29.35801953      31.45502092      33.18502094
O       31.45502092      29.35801953      33.18502094
O       31.45502092      31.45502092      35.28202234
O       25.16401674      25.16401674      39.47602513
O       25.16401674      27.26101814      37.37902373
O       27.26101814      25.16401674      37.37902373
O       27.26101814      27.26101814      39.47602513
O       29.35801953      25.16401674      39.47602513
O       29.35801953      27.26101814      37.37902373
O       31.45502092      25.16401674      37.37902373
O       31.45502092      27.26101814      39.47602513
O       25.16401674      29.35801953      39.47602513
O       25.16401674      31.45502092      37.37902373
O       27.26101814      29.35801953      37.37902373
O       27.26101814      31.45502092      39.47602513
O       29.35801953      29.35801953      39.47602513
O       29.35801953      31.45502092      37.37902373
O       31.45502092      29.35801953      37.37902373
O       31.45502092      31.45502092      39.47602513
O       16.77601116      16.77601116      43.67002792
O       16.77601116      18.87301255      41.57302652
O       18.87301255      16.77601116      41.57302652
O       18.87301255      18.87301255      43.67002792
O       20.97001395      16.77601116      43.67002792
O       20.97001395      18.87301255      41.57302652
O       23.06701534      16.77601116      41.57302652
O       23.06701534      18.87301255      43.67002792
O       16.77601116      20.97001395      43.67002792
O       16.77601116      23.06701534      41.57302652
O       18.87301255      20.97001395      41.57302652
O       18.87301255      23.06701534      43.67002792
O       20.97001395      20.97001395      43.67002792
O       20.97001395      23.06701534      41.57302652
O       23.06701534      20.97001395      41.57302652
O       23.06701534      23.06701534      43.67002792
O       16.77601116      16.77601116      47.86403071
O       16.77601116      18.87301255      45.76702931
O       18.87301255      16.77601116      45.76702931
O       18.87301255      18.87301255      47.86403071
O       20.97001395      16.77601116      47.86403071
O       20.97001395      18.87301255      45.76702931
O       23.06701534      16.77601116      45.76702931
O       23.06701534      18.87301255      47.86403071
O       16.77601116      20.97001395      47.86403071
O       16.77601116      23.06701534      45.76702931
O       18.87301255      20.97001395      45.76702931
O       18.87301255      23.06701534      47.86403071
O       20.97001395      20.97001395      47.86403071
O       20.97001395      23.06701534      45.76702931
O       23.06701534      20.97001395      45.76702931
O       23.06701534      23.06701534      47.86403071
O       25.16401674      16.77601116      43.67002792
O       25.16401674      18.87301255      41.57302652
O       27.26101814      16.77601116      41.57302652
O       27.26101814      18.87301255      43.67002792
O       29.35801953      16.77601116      43.67002792
O       29.35801953      18.87301255      41.57302652
O       31.45502092      16.77601116      41.57302652
O       31.45502092      18.87301255      43.67002792
O       25.16401674      20.97001395      43.67002792
O       25.16401674      23.06701534      41.57302652
O       27.26101814      20.97001395      41.57302652
O       27.26101814      23.06701534      43.67002792
O       29.35801953      20.97001395      43.67002792
O       29.35801953      23.06701534      41.57302652
O       31.45502092      20.97001395      41.57302652
O       31.45502092      23.06701534      43.67002792
O       25.16401674      16.77601116      47.86403071
O       25.16401674      18.87301255      45.76702931
O       27.26101814      16.77601116      45.76702931
O       27.26101814      18.87301255      47.86403071
O       29.35801953      16.77601116      47.86403071
O       29.35801953      18.87301255      45.76702931
O       31.45502092      16.77601116      45.76702931
O       31.45502092      18.87301255      47.86403071
O       25.16401674      20.97001395      47.86403071
O       25.16401674      23.06701534      45.76702931
O       27.26101814      20.97001395      45.76702931
O       27.26101814      23.06701534      47.86403071
O       29.35801953      20.97001395      47.86403071
O       29.35801953      23.06701534      45.76702931
O       31.45502092      20.97001395      45.76702931
O       31.45502092      23.06701534      47.86403071
O       16.77601116      25.16401674      43.67002792
O       16.77601116      27.26101814      41.57302652
O       18.87301255      25.16401674      41.57302652
O       18.87301255      27.26101814      43.67002792
O       20.97001395      25.16401674      43.67002792
O       20.97001395      27.26101814      41.57302652
O       23.06701534      25.16401674      41.57302652
O       23.06701534      27.26101814      43.67002792
O       16.77601116      29.35801953      43.67002792
O       16.77601116      31.45502092      41.57302652
O       18.87301255      29.35801953      41.57302652
O       18.87301255      31.45502092      43.67002792
O       20.97001395      29.35801953      43.67002792
O       20.97001395      31.45502092      41.57302652
O       23.06701534      29.35801953      41.57302652
O       23.06701534      31.45502092      43.67002792
O       16.77601116      25.16401674      47.86403071
O       16.77601116      27.26101814      45.76702931
O       18.87301255      25.16401674      45.76702931
O       18.87301255      27.26101814      47.86403071
O       20.97001395      25.16401674      47.86403071
O       20.97001395      27.26101814      45.76702931
O       23.06701534      25.16401674      45.76702931
O       23.06701534      27.26101814      47.86403071
O       16.77601116      29.35801953      47.86403071
O       16.77601116      31.45502092      45.76702931
O       18.87301255      29.35801953      45.76702931
O       18.87301255      31.45502092      47.86403071
O       20.97001395      29.35801953      47.86403071
O       20.97001395      31.45502092      45.76702931
O       23.06701534      29.35801953      45.76702931
O       23.06701534      31.45502092      47.86403071
O       25.16401674      25.16401674      43.67002792
O       25.16401674      27.26101814      41.57302652
O       27.26101814      25.16401674      41.57302652
O       27.26101814      27.26101814      43.67002792
O       29.35801953      25.16401674      43.67002792
O       29.35801953      27.26101814      41.57302652
O       31.45502092      25.16401674      41.57302652
O       31.45502092      27.26101814      43.67002792
O       25.16401674      29.35801953      43.67002792
O       25.16401674      31.45502092      41.57302652
O       27.26101814      29.35801953      41.57302652
O       27.26101814      31.45502092      43.67002792
O       29.35801953      29.35801953      43.67002792
O       29.35801953      31.45502092      41.57302652
O       31.45502092      29.35801953      41.57302652
O       31.45502092      31.45502092      43.67002792
O       25.16401674      25.16401674      47.86403071
O       25.16401674      27.26101814      45.76702931
O       27.26101814      25.16401674      45.76702931
O       27.26101814      27.26101814      47.86403071
O       29.35801953      25.16401674      47.86403071
O       29.35801953      27.26101814      45.76702931
O       31.45502092      25.16401674      45.76702931
O       31.45502092      27.26101814      47.86403071
O       25.16401674      29.35801953      47.86403071
O       25.16401674      31.45502092      45.76702931
O       27.26101814      29.35801953      45.76702931
O       27.26101814      31.45502092      47.86403071
O       29.35801953      29.35801953      47.86403071
O       29.35801953      31.45502092      45.76702931
O       31.45502092      29.35801953      45.76702931
O       31.45502092      31.45502092      47.86403071
O       15.71964747      27.32761353      63.19443728
O        6.53391627      29.51611081     103.46316547
O        4.86196977      32.67166219      71.52425663
O       11.83300511       2.53485185      63.67721742
O       10.30886752       3.83526883     108.44568436
O       26.30314027      18.86358759      68.93271073
O       28.52598560      11.14575334      83.02327313
O       20.35864039       4.25884392     112.24108176
O       21.13180081       9.85633232      90.44432910
O        4.94319857       6.39380779      55.41198084
O       24.74542615       2.37995182      64.07724371
O        1.09576226      15.99996171      72.56468140
O       17.61217529      26.24125392      71.93086324
O        1.61025815      24.52305822      97.79775491
O        5.24442164      32.83212209      92.53614911
O       11.95246339      19.13095881     112.42869383
O        1.99571035      31.08029707     111.45766943
O        2.46104568      30.36121267     104.46889918
O       10.19166403      15.55410190     100.09248289
O       20.12680470      24.33427734     112.33327806
O       32.87764224      24.60864795      76.33323753
O        6.87728796      23.19953353     107.66923938
O        2.47741679       4.68401721      65.79777144
O       28.64322605       0.72147629      95.32408914
O        1.25166867      20.16130366      80.25659790
O       16.12377711      32.80317402      55.63936291
O       10.13998241      17.17884067      74.66030668
O        0.67936565      20.41752354      68.96721323
O       26.14698811       6.30308475      97.95029140
O       26.61253310      10.86495812      92.55309565
O        5.11975293       8.50594263      87.42417046
O        8.98918920      10.38389555     116.20348099
O       32.22069657       1.57994318      80.58395181
O        8.50140619      24.09678182      74.72369033
O        0.87789609      28.78730064     100.41564809
O       23.26508012       1.55274096      94.88950908
O       21.03898441      16.19556088      82.56614332
O       14.04172692       3.84460424     102.44775026
O       29.28900781      21.43784638      73.77724773
O       33.50749358      18.67009869      58.12579124
O       10.57374037       4.53839117     105.32516302
O        9.70762880      11.78067167     108.35980106
O       27.04092767       6.23494534      54.36117901
O       21.25474092      24.22518819      68.12378672
O       12.44412294       5.12893701      76.15295636
O       17.15463319      19.98892361      57.74968092
O       29.44572437       4.82951670     106.02259395
O       18.70921393      16.72501968     105.41316915
O       17.07025179      22.90170454     107.17738337
O       14.10733828      13.36333853     101.70532802
O       10.81473325       7.52689460     107.34220696
O        2.01507424      10.02189432      85.56868752
O       16.75798104       9.35235518      78.36040666
O        5.52868863      11.24348145      60.93033700
O       26.39805407      30.42075870      60.75224143
O       26.09291510      18.55803370      61.40898862
O       14.74739444      29.21258677      84.39765457
O       31.80520037      18.22290953      88.05293139
O       16.77415843      10.53247562      89.18741628
O       11.33756000      14.44989952     115.75070187
O       11.87510202      15.01694643      68.20149863
O       20.09565726      32.78911469      61.02413923
O        5.90698127      25.20057438      70.73018500
O       31.65266572      16.64011113      92.76758515
O        6.39637723       3.05220740     116.01394779
O       10.24941098       8.31423621     113.29711889
O       11.72273533      28.96563064     118.21176435
O       -0.19681675      32.35007768      63.88765279
O       16.00261433       9.36968535     114.48617348
O       10.20378742      13.58432914      72.32500189
O        6.04706791      12.64286657      71.23084068
O       31.11675181      30.43466394     108.33781942
O       32.83517746      28.60211964      88.33660719
O       13.75158148       8.72519419      79.73316427
O       13.27469441      12.45652998     107.47801103
O       18.27728923      21.94176507      75.24673450
O       32.59719374      19.74137589     109.74449277
O       14.73676226      25.90029401      90.88982845
O       12.48094919       8.85256720      96.87298622
O       22.21960421      32.31970873      98.39104493
O       29.29778095      27.75305541      97.56590499
O       11.17075127       3.31395941      99.25570393
O       15.13143731      17.69713009     103.12918707
O        3.60090612      19.62768640      60.71899263
O       15.72904973      20.60702006      64.83366550
O       16.29245009      17.50936815      71.18747174
O       13.25017844      23.39068352      57.72155909
O        5.69488036      20.01482476     112.42042512
O       17.64988926       2.98011342     117.78352163
O        0.44721216      24.47024961     115.37140333
O        4.33287052      22.64587526      55.26064082
O       20.74977676      33.04315667      69.81308246
O        7.34439108       2.41256700      82.17920660
O       18.14178634      31.83427408      71.22990401
O        8.92354885      26.15654779      79.33225155
O       21.53113374      25.36920472     104.95384259
O       18.48823789      15.54407108      68.80553683
O       15.85777374      25.25921841      60.15565689
O       24.06274126       8.15454660      72.07501808
O       18.64183869      14.66344774      74.87835591
O        7.15369341      26.70183567     107.35343408
O        6.50337411      29.27424532      92.98536818
O       31.52693503      15.62290609      57.29532624
O       11.44381738      21.34297798     118.22455677
O       12.37427371       6.69299977      58.24434847
O        1.64302844      12.90388654      76.70700300
O       23.23438224      28.98129778      60.44875364
O       19.37404226      13.67429051      54.21140529
O        9.68950003      23.58030291      92.06459040
O        7.36267229       7.66931831      83.25534691
O       13.77134358      26.91169929      78.34455629
O       19.27406728      28.15191348      74.77366645
O       17.75110879      25.40961162      80.97726164
O       21.66628433      32.67686286      90.08368007
O       10.22280151      27.27088293      88.42279855
O       26.45780789      13.51839002      87.88467456
O       10.23602143       0.64201669      97.64631335
O        2.67677328      15.83196958      69.31767625
O       12.76222796      16.88602248      80.90794756
O       28.66865567      29.23208080      77.71618431
O        2.85784789      22.20043920      99.13044553
O       20.14344461      21.05738521     100.99331547
O       29.39648352      23.19606524     102.01310328
O        8.95494134      11.46872957      87.14420974
O       31.80847616      20.68952920      71.23217864
O        5.79162339      30.19670662      87.96134033
O       26.92302924       9.50298301     116.64403461
O       17.33936489       4.22532337      90.57508330
O        7.17015812       5.92308411     103.21785898
O       25.37886498      16.87720971      73.30821516
O       23.99790476      12.57997260      56.55935864
O       16.74230363       6.54782403     119.45019544
O        0.62429555      19.62565904     103.71977587
O        2.52321411      12.90943811     109.52976346
O       26.19614366      17.52362594      77.04784215
O        0.15272686      14.34120221     105.58486275
O       28.89520821      11.68507297     106.95745158
O       30.70326519       3.45701427      88.90576635
O       28.88738674      24.46225729      57.29913358
O       18.99700768      10.74779304      96.58278848
O       19.78488920      24.95789614      88.41933811
O       27.39495214      13.11217206      74.07102684
O       30.42271956      25.00174953      85.49188749
O       10.50639592      32.43776209      64.11607539
O        3.20456996      12.61687753      84.53310815
O       11.94871472      24.58776177     119.49189144
O       22.34024417      25.85035500     108.75053052
O       24.68235782      19.56469342     105.29682461
O       15.37023128       5.89374245     116.60363235
O        0.57648749       8.47359195      58.20790324
O        5.60897027      33.20561019     113.63112949
O       24.18677927      19.66962104      86.69646779
O       22.27599329       8.25215531     104.65971997
O        2.12142334      14.83750673      82.99640533
O        2.21906979      25.57510992     118.41944394
O       25.33854653       6.86281605     108.63302165
O       27.92243851       1.05720502     105.17677009
O       24.94956665      28.53137491      85.10360042
O       32.22330862      18.56200780      77.35335351
O        9.28473218       7.44933204      58.67361039
O       29.84827382      28.21597243      66.96249868
O        7.31534564      12.59206231      94.64261689
O        4.86843540      18.30819754      56.19342849
O        4.90251798      27.48489047      54.08366829
O       29.60447872      13.32109701     115.50025097
O       26.84866141       7.43442472      75.66097129
O       23.32831396      14.16888369      80.18295242
O       26.02201720      22.24855729     113.67734511
O       31.81911014      31.82352895      88.04952039
O        3.99439269      25.69003629     106.17841911
O       17.48452000       1.40658330     114.94172108
O        6.92164414      21.25888266     118.71528929
O        8.87658841      33.09409600     113.14317668
O       11.26812956      24.75870672     116.49339389
O       16.83858087      30.27530970     104.69865837
O        6.44943473       6.64041603      66.94938056
O       25.34639486       2.12210668      83.90374148
O       27.00068819      11.93121954      58.61467225
O       16.75914827      30.01031978     115.18589175
O        3.82495304      28.32355318      68.85756206
O       28.85683274       6.65887846      58.20829466
O        2.08610652      30.42174634      67.08967841
O       26.32727745      22.46668863      99.06917852
O        5.53269313      15.67957235      72.74207974
O        1.06001038       2.14189205      95.11625655
O       20.01249884       9.09492327      72.98987389
O       26.31535791       8.56213754      88.49019191
O       26.05019490      32.69691789      94.83627631
O        1.29521857      32.75823008     118.46574858
O       29.80239030      22.05785467      87.79162322
O       24.29287513      15.59116518      83.30003123
O        1.93856827      21.27375170      72.70976656
O       27.36411577      21.57319143      93.56376053
O        6.01993147      18.99219717      79.61834801
O       31.53779893       3.72783718      58.78845490
O       12.59235158      31.74669104     116.06339246
O        7.99381218       8.97286556      79.01635026
O       16.52710156      29.74189696      78.20115957
O       13.60504814      22.84764617      93.91383474
O       18.35708362      26.96820803      91.65632411
O        7.52325448      22.43534782      79.22654332
O       22.36583019      18.64538167      59.56506725
O       16.21707776      31.80596102      68.59282613
O       19.46894850      17.42016036      91.06626086
O       31.73677611       5.19601753      81.29714388
O        5.32258442      26.94123888      58.44310371
O        3.29984680      10.80081974     100.50808039
O       22.01946324       0.48021481      86.41419642
O        1.57384721      13.02637691     119.08244998
O       21.50277949      24.30838380      56.00964223
O       13.54643959      29.14277827      70.21203312
O       21.67099011      26.94017724     115.46031874
O       24.82926589      25.98813011      75.96230341
O        8.98226395      12.47581313      62.32673513
O       18.12918634       6.18578621      79.66375967
O        3.06165218      19.15838676     116.58911817
O        4.24415073       4.52789936      68.69743564
O        1.24423283      21.29522063      56.45375376
O       17.28292262      13.91792591      62.30234581
O        2.45815147      27.65518586      92.47010520
O        6.48223797      28.77530675      80.38891122
O       20.44269124       2.43329207      99.78303513
O       14.10804968      13.57655121      79.32060808
O       24.85346885      30.07969174     110.86247593
O        3.78991475      16.56784871      94.65991296
O       27.54622528      30.35612663     104.19802653
O       23.57762952       3.01392684      55.48306026
O       31.93461591      17.50519946     102.35973937
O       14.26261761       0.81907496      81.87029868
O        9.54781128      23.86248678      96.98409794
O        3.06148317       5.75557304      93.64042370
O       12.53683125      32.98837238      80.27159146
O       16.29405683       6.76280691      97.56916634
O       17.08092751       4.90045877     112.12652757
O        3.63027914       9.07683149      75.20779231
O       10.59241158       6.82209660      88.70596085
O       20.10004214      29.39342791     116.53314810
O       31.48835010      22.31821419      62.89811347
O       23.93936642      33.19867224      57.67266915
O       16.59819198      25.91782240     109.54603817
O        6.63985141       3.63655577     112.05803355
O       10.64353393      20.11547823     109.33554781
O       20.31507102       3.61640730      78.28099558
O        5.18410015       3.68316240      95.89720323
O       12.02623282      24.11049077      67.24772811
O       32.28072506       8.74298513     106.30025577
O       -0.00568927       9.39996670      70.67518268
O       31.68627655       1.25159856     111.65229350
O       32.40196921      13.98270319      69.44198842
O       24.17190025      11.34971551      61.17864930
O       32.90890390       5.29227359     100.21003970
O       12.76049643      21.00903965      83.44116201
O       29.02000510      27.73313040      63.89271649
O       12.69214299      12.19884959      76.30862761
O        2.86070996      32.73337419      88.61658486
O       21.80371572      16.12317761      77.40369391
O       17.70041790      28.34613546      67.26940941
O       18.22882471      17.02530265      83.77843739
O        6.89031158       0.17920900     116.15479454
O       12.55961519       1.65459478     115.97511441
O        8.34687021      10.55692671      92.13191235
O        4.09362103       7.08712847      91.11765067
O       20.59561166       3.83565277      62.48215431
O       13.92579778       6.21946784      93.68621120
O       26.06095065      10.15311502     106.97956505
O        7.06698012      13.78558746     102.15016777
O       12.06949989      29.01073202     107.22053736
O       18.44599048       7.23146865      95.37841681
O       31.83924026      26.08563121      56.64660295
O        8.84274201       4.20372695      86.43463947
O       25.52444595      31.59982184      77.41557493
O       14.42849869      19.62784864      99.92353693
O        3.09827965       5.56369186      84.71906752
O       19.07377357      13.01871470      65.72996962
O        6.84281474      32.08575396      96.51314753
O       22.34535157       8.07330019      88.24471680
O        7.58047260       2.18075273      91.28623837
O       -0.02021326      22.53178389      83.73819907
O       32.18874182      30.23807392      77.22255304
O       16.28096070      22.12311528      85.24562555
O       24.29499493      28.26755434      63.62391578
O       32.46855460       8.43575594     102.75607930
O       28.57722262      14.68827376     110.05249982
O       25.46849825       7.34834851      62.88120934
O        7.49229020       5.05187697      92.58096808
O       15.16062989      15.88806454      88.29512420
O       21.08900626      25.30854000      95.86124137
O       19.87012701      12.59325709      98.98977272
O        5.40739251      23.28411976      76.80175520
O       10.66072456      23.72258844      88.55933777
O        0.92303205       2.59584905      63.32446259
O        4.40900747      18.25109052     100.80561816
O        1.61208198      28.53321396      59.59424836
O       24.72539140      25.83906261      89.40322943
O       13.83671313       1.76738158      60.06449650
O       20.14996867       7.30988412      83.03695825
O       30.80535054      10.88144470      94.55753422
O       16.69337534       7.22374408      85.76536886
O        0.31383234       1.80310985     113.77635419
O       22.56687752      21.78717280     108.08954159
O        9.12950393      16.52630350      58.34845207
O        7.97022294      15.31308208     108.74583391
O        5.94072525      15.11762165      67.96206284
O       29.67559000       5.05380412      92.74702299
O        3.14335721      31.93586865     100.77037983
O       26.91936942       9.59428203      55.08094177
O       19.62397619      22.26582893     118.33478944
O       13.08508118      31.10645773      95.84265193
O       23.25563035       3.73041362      70.93568758
O       12.16279103      33.78006649      54.26506883
O       17.58324224       2.99415230      61.14847629
O       28.27893095      33.12778831      55.89973086
O       11.83164640      20.11618737      76.04417853
O       30.13457923      21.14294810     107.41086678
O       19.59288802       6.99406036      59.12274917
O        1.55650046       1.12434993      69.06913159
O       20.59319823      12.24212860      82.96678296
O        9.15299206      23.12151172      69.97043023
O       24.87681052       1.25020693      67.44101647
O        7.41315602      20.75516868      87.52384488
O       10.79325757      29.05101300      80.08561565
O       18.32914815       7.17425913     115.95898533
O        1.91823325       3.94829077      60.95953810
O        2.11800882      20.59655974     114.55869231
O        7.30946121      19.26433110      93.95100061
O       10.17348104      29.69843122      68.32173943
O       17.66572534      13.38657880      91.04429265
O       27.65356474      17.12329714      86.69355557
O        5.14885918       2.89605265     109.35804935
O       11.71347707      18.62397969      96.72529121
O       29.81789649      22.75014464      96.19803120
O        1.36337694      16.64937949      86.55699921
O       21.17232121      15.57078452      71.38158677
O       13.92479482      11.83573041      94.07762713
O        9.57004402      31.31274507     109.90417681
O        0.09245482      12.26682005     103.37021832
O        1.72161351       5.02776601      55.35652616
O       14.07933995      21.80945691      69.51598610
O       10.95651207      33.71694028      76.30297012
O       28.52670498      22.05763002      78.63209700
O       26.48299922       8.71437769      67.73671547
O       30.72093242      12.68030249      63.19945167
O       30.37587244       2.85005027     114.60432444
O        7.89173062       4.15108588      99.46107723
O        2.81017493      16.34596783      97.92345148
O       17.43193732      11.02443832     100.08380121
O       10.91738169       1.19118144     105.12650569
O       32.17049883      19.74577387      84.88865747
O       31.19360967      24.82189574      81.14746702
O       10.49700280       8.30001688      84.17160357
O       13.51487198       3.95599833      89.97600265
O       18.03233473       4.42029187      75.04053287
O       30.61892740      10.93214426      76.46218816
O       26.64081291       1.26334305     110.34270866
O       14.12616403      10.72987494      90.01784726
O        7.24585896      22.84740792      66.51439802
O       28.38739245      19.74258276      58.63550170
O        2.32859899       5.59063298     105.27448716
O       24.50305395      27.97805585      54.39532086
O        5.00744369      26.10525721      90.88762991
O       14.32798772      18.98001038      94.34484611
O       17.22750229       6.36538236      67.17690135
O       25.15483804       4.61506085      89.72267618
O       -0.08818959      30.91329746      96.41613472
O       32.74381512      20.18894653     100.14838329
O       27.01753016      12.37043237      97.62052640
O       21.22599948      18.19699363     113.44102340
O       32.62852153      24.85725999      73.08216106
O       21.72906560       7.38512935      78.16030560
O       30.04197912      23.64030450     118.49154572
O       27.15516311      28.83833041      69.82839442
O        6.92993617      23.68841703      58.24390036
O       16.49480831      22.08318394      98.83025189
O       19.51353706      20.29792063      91.39940662
O        6.84899074      16.41720187     111.63697238
O        7.68047196      25.23404545     116.50120290
O       15.57350204       9.67169316      54.89857480
O        6.56992483       5.34445923      59.88961099
O       16.80343690      29.66577957      75.37163098
O       19.90373933       1.65799741      91.74434228
O       32.28842562      28.84811278     112.94616517
O        0.57806804      15.73358829      63.10633430
O        1.10177481      19.31975239      97.54336891
O        5.08907344      29.66645639      65.79718855
O        0.68778905      23.66877778     108.87552262
O       -0.06425045      12.46073152      90.14018386
O        9.75817768      10.57489471      81.98291876
O        2.05662278      28.90886602      62.43888190
O       32.09471708      31.20174887      92.98205239
O        7.94865844      21.93153421     115.41862833
O       29.03652094       2.69534395      72.13328929
O       12.74751150      13.44844512      59.24225572
O       12.62623846      21.88051560      97.81277899
O       14.06501847      24.99919739      71.86141926
O        4.91896553      22.77911483     117.07396723
O       30.42927579      12.86005286      65.99836555
O       21.59659566      22.93271101      72.72378506
O       14.49796712      23.00634307     110.79811103
O       33.46455501      22.12973389      96.83557397
O       28.51854412       4.12245021      77.82065039
O       14.26711088      31.97272209      99.40271478
O        2.26737950      31.77092802      93.04032836
O        1.43225558      25.24948032      87.64267391
O        5.73390174      13.10595211      87.46534509
O       19.08482918       1.46831132      65.91207936
O        8.68914844      20.73898280      58.50343228
O       24.75560137       3.14317533      92.86227020
O       13.76378954      10.14961346      63.55066903
O       16.61784728      15.64782842      96.29011912
O       14.67724191      20.11508512      88.95911399
O       16.15220291      10.26051433     107.19174116
O       24.51284349      22.45298624      96.55176651
O       16.24550277      15.53687096     118.78159514
O       32.08166406      31.06858223      84.43479389
O       16.55926291      20.59199262      93.57032068
O        4.45751561      14.05991113      60.41688852
O       22.00587307      10.67127048      55.91633044
O       19.04943847      13.45459831      78.42730215
O       13.94385942       1.42616301      86.52456662
O        8.98284005      11.11451755      73.83421229
O       27.39612386       3.62764965      99.95541799
O        0.23276156      22.54626896     105.33881103
O        4.52485190      26.78123968      75.52277280
O       23.61282759      22.15834447      92.98787076
O       16.44587127      26.24603629      75.94328814
O       13.31718407       3.72285174      78.98300964
O        7.78383381      20.57481712     106.74334992
O       14.76609287      23.93953665     100.96060142
O        6.90594354      21.74065189     100.60012311
O       21.26555671      20.52059349      55.90267653
O        8.80959651      20.83400800      83.20412608
O       27.78974161       2.84548067      68.97782961
O       28.88371219      20.13109529      82.94298131
O       11.87868503      11.60415669      69.83038679
O       32.50980901       3.86544406      54.18080032
O       33.42843673      32.87999282     110.37661633
O        6.56327757      18.28242499      74.91635746
O        3.97039313      31.60868217      60.23304697
O       23.86249035      23.12557984     119.89765394
O        8.74831206      33.56023778      60.32443568
O        3.62979643      18.77919626     109.76942336
O       18.40280365      10.62917232      53.92571152
O       31.47101178      31.99206860     114.53964292
O        0.72825133      25.17813623      91.49816792
O       10.16114264      29.11676273      58.87484447
O       14.34847120       9.46210855     103.42223819
O        3.49565509      29.38953821      86.30031194
O        6.37261096      27.08555341      67.28156817
O       25.94186761      16.42614752     108.68892715
O       30.65603339      16.33550754      69.10786652
O       16.15820446       1.33645871      69.72924854
O       13.57938447       4.13742270     110.45595568
O        1.35377860       6.57144368      89.77372283
O        7.78096881       8.79784976      97.85762035
O       27.67019478      30.29323835      90.30600676
O       23.76304189       9.73202493      66.10260569
O        8.58208894      25.76080413     100.29509193
O        5.19853631       5.04670155     100.21101467
O       24.40633763      22.39276255      86.33240675
O        2.19389905       0.88646005      57.07651326
O       22.93185593       6.41456817     114.42754235
O       32.72385708      13.70146202      96.34321629
O       28.12736684       0.67812227     118.62189889
O        7.81474231      20.16351140      72.42564858
O       18.71868080      12.40521103      58.92160056
O       32.02788201       5.16794126      97.12322443
O        9.65013096       1.00918303     108.87270294
O       29.11327252       4.20706718      84.22506860
O        9.05960603      32.75806611     118.94801052
O       21.28938788       3.93538775     115.87629949
O       18.27541315      22.90503874      90.69958295
O        0.53296891      27.80734661     107.73301977
O        2.14879566       6.20338519     116.92202832
O       24.88811965      24.44532523      83.32431100
O        6.18210696       6.52637673     106.86412876
O       23.59820144       3.95250602     107.18488920
O       26.40913642      22.04968941      69.85585924
O       30.25646376      17.71211025     112.26327977
O       -0.09349179      19.61586289      54.12181120
O       10.41332901      14.63248106     106.17811895
O       11.40179192      14.76104551      87.69122129
O       32.40957060      12.91248704     109.92202262
O        9.48742442      31.37652762      55.84616533
O       23.22105635      17.72126692     108.94992340
O       24.05688802      31.49918084     108.70976579
O       16.23808481       2.15133560      76.35504147
O       20.66013076      16.10921429      66.46828656
O        2.97548573      21.86453849      64.23757833
O       20.72046491      25.86023447     101.40691434
O       10.67973745       7.72699423      76.55753099
O       10.13329867      28.27445098      56.09681132
O        8.64782543       2.62092136      69.78103679
O       17.01000175      30.28519236      59.59862594
O       19.69585975      19.54097202      67.01399308
O        4.08742221      24.44012204      59.49157335
O        3.65761838       3.76817750      57.82763016
O        4.86955541      31.95108333      81.86378956
O       25.54514531       0.68183571      89.40530922
O       28.69638186      10.29348634     109.74196114
O        7.27059276       9.24187880      65.67489064
O       20.41289777       4.71684233      70.70668790
O       12.43726751      27.58203287      75.20393621
O       24.08706082      20.33025001      99.19405304
O       24.18152799      15.90375279      69.05230207
O        0.91475719      21.48810088      76.47559974
O       23.31334571      14.85379732     113.13569844
O       23.89954680      29.72292410      69.19912112
O       10.27414351      25.28523008      60.31441862
O       11.80394006       5.83603375      71.72205095
O       12.04640195      19.46285555      60.57032110
O       28.60679198      23.79204221      71.23998909
O        7.49892511      16.98313663      68.85198436
O        6.30071425      24.91624038      63.08091495
O        1.81195265       1.49202194     103.90815652
O       33.42580889      33.61618343      73.11910669
O       18.37020578      19.86231975      83.05261077
O       30.93544285      28.47375609      93.69721451
O       19.69503124      20.10260165     107.88574602
O       19.52057382      26.81305897      63.67390715
O       32.41595320      18.62331262      65.79056626
O       10.39646540      21.66995859      56.20206905
O       17.14075870      31.27531043     118.87161363
O        1.60462528       2.77637295      88.64232958
O       32.24384761       8.88897077      85.05442588
O       31.83264097       6.26168155      88.09779533
O       22.68373307       8.03592524     119.68202537
O       29.09390858       2.78245005     102.31071358
O       17.93042917      15.79735067      80.23833444
O       18.74524422      17.16600109      63.44277908
O       22.56701921      19.32553179      83.19669660
O        1.72348909      10.37874392      81.36464381
O       14.78972545      17.42526466      77.30497251
O       30.90336624       4.66954906      68.78456933
O        1.62762162      25.58015367      94.88456412
O       29.91093784       4.91918665      63.11552021
O       10.75191614      13.56274535      92.79248414
O       23.61373938      28.58664865      88.39380428
O        4.58262117      12.28080563      75.41723063
O       13.56594609       5.37014206      61.59103453
O        7.27455310       4.51241660      89.70978835
O        5.97301187      11.28391054      79.54061330
O        2.87596707      11.99774236     107.05058337
O        3.38443908      23.98735970     112.66694258
O       16.97747136       7.29955722      72.33112780
O        6.38403894      16.24325677     118.94087169
O       32.82061902      25.87138145     112.34119007
O       21.03374783       8.30260824      63.01188217
O       10.30408821       2.56192988      74.46308031
O       24.92800736      10.03350878     113.28607023
O       17.97651260       0.59830258      88.35386854
O       21.44909899       1.25535562      72.43785977
O        7.51041423       6.26284940      71.82187997
O       23.65887087      16.44227317      57.97412686
O       30.38264518      31.20925079      58.67994783
O       23.41469510       9.32394485     101.79539654
O       32.84248607      24.98365211     119.94253972
O        4.60871184       2.95947675     105.68500126
O       24.49235636       9.52597726      78.21156831
O        5.52665693      29.65135539      99.57394285
O        6.25527337      32.34546018      67.60725921
O       29.88294496      26.45128538      59.34809705
O       20.51464026      28.84602499      58.36456925
O       12.74055854      26.78523953     105.30918102
O       15.21328687      31.62189372      93.15234961
O        0.32707027      31.75387585      54.64159955
O       10.00325991       8.51480890     103.73801100
O        6.94865801       5.74799977      78.88274476
O       28.80731090      12.12789266      89.88990066
O       17.99063078      10.96355449     112.72693382
O       16.26680473      10.94270210      72.24395792
O       13.15245669      14.74777152     112.57786074
O       26.58128623      23.50199650      90.97538963
O       22.84338548      24.01753269      99.22355641
O       19.61211661      33.58035111      83.30530516
O        3.90627022      22.74003686      91.29463484
O       32.90108955      15.86755991      81.36735388
O       27.82038751       6.97913384      80.66261794
O        6.36882774      10.72108495      76.54071503
O       17.44599187      25.77289489     101.86138912
O       30.58031952       9.53239907      89.12461040
O        5.75549319      26.95525212      85.06379579
O       16.35957234      19.26092365     111.98366261
O        7.09169020      28.70603953     115.35903490
O       23.26182905      33.14491228     118.53641287
O       28.67730264      21.85826673      67.95888865
O       26.87996651      29.23494370      97.26851399
O       20.37491287      12.74482531      70.18109819
O       28.93382275      17.63067481     100.03760368
O        1.79193594      15.53045018      65.86327237
O       23.97073473      13.03329516     110.46884974
O        3.39899378      31.69696082      56.84132472
O       31.43237336      12.50505892     112.50702373
O       21.28817724      19.86970544      93.84922014
O       19.85463836      25.61017420     117.21205948
O       21.45980344       5.54975877      56.46808696
O       26.84133177      17.55008036     117.27707247
O       28.94634219      25.73550411      61.88271982
O        4.82845738      13.17613514     117.43656980
O       11.73658518      24.77427757      84.06996206
O       22.42080445       4.74322524      83.58945662
O       -0.11764431      17.91243206     114.22390771
O        7.66814682      10.71462074     112.63415936
O       10.16400427      26.43707605      93.69713320
O       11.57781163       1.85192878      90.23503258
O       32.85304081       5.57685004     106.33962238
O        2.16935800       0.90494474      80.13108134
O       11.13378441      24.29373954     101.11316328
O       22.99367161      13.39225135      67.25440491
O        9.06633282      13.79856118      75.37912124
O       21.41074066      23.36534049      84.09232306
O       24.84301974      21.58179666      62.30041453
O       28.80205514      16.27575432     107.04891722
O        6.20085769      11.32497043      56.24237768
O       31.16086511       6.20695106      73.11718639
O       22.67342421      10.78247243      98.60647011
O       10.18623033      26.71204840      63.49734611
O       29.35497928      27.44359833      89.41622201
O       30.39967468       9.15310570     115.06827635
O        6.06872913      10.78985333     104.35447136
O        3.61840353       9.11098860     109.88066189
O       25.89177771       2.82822471      58.27333526
O       26.95788640      28.35523132      81.72743812
O       15.66358651       8.37594556      91.36831836
O       14.27733561      20.76198244      56.82138345
O       17.71055753      30.36489625     110.20455346
O        6.99777291      17.71328232      82.09945220
O        2.96121982       0.91084295     114.89008660
O        1.46767543      28.24766673     119.36004902
O        8.59041738       3.82525168      62.36924931
O       23.85248925       5.83337803     100.73307132
O       21.77983409       0.40010045     103.89155209
O       18.18343325      33.02348025      63.23618477
O       10.46085059      20.31065503      89.18885634
O       13.96849155       3.19915366      93.66107864
O       29.67005677      13.87526873      54.38365801
O       15.47194119       7.49761571     101.58793041
O       31.21870080      11.18127066      79.62179079
O       18.04714699      18.94556229      70.01256226
O       25.20332466      15.00494850     103.56202266
O       11.03701779      20.73201660      86.16046247
O        7.05134091      26.29260001      88.49208340
O       21.24932126       8.11484536      67.08134359
O       31.31144878       0.69494497     108.61207073
O       10.10529894      19.12359329      66.68112605
O        7.89643994       5.45812807     109.27134386
O       18.75781472       1.40258007      59.12922160
O       31.31310188      32.98234514      98.85952851
O       29.89130502      28.23756980      83.81875339
O       23.74166406      11.37336950      72.18461067
O       19.31122465      16.70435267      57.41786494
O       12.82683510      28.59264402      65.22853358
O       12.95236682      29.49719554      91.54012574
O       20.70769711      13.08673148      89.12319050
O       27.82468351      25.85005469     107.25968300
O       22.02045873      12.14532071     102.30410658
O       14.09038492       6.83573711      73.98776995
O       23.45943626      12.94450176      93.73023946
O       33.27639196      26.11011760     100.04058359
O       19.62762281       0.18799912      56.61698286
O       30.22224622      28.27952709     116.58699469
O       17.53625696      27.67803677      54.38671404
O        1.43775512      32.50039707     108.01647921
O       21.44887757      15.03010654      62.24654145
O        3.74000389       2.20111527      85.65706302
O       10.47981689       8.97650238     110.20780449
O       32.13750144       0.79846730     119.47158666
O       16.68425572       3.88421221     105.12298051
O        9.22848965      24.95183622      55.31178242
O        5.47546173      15.23967411      76.51997830
O        8.69411397      29.21641115     101.39369133
O       20.97641209      17.72060916      87.71523358
O       20.63843985      10.66194800      64.98709205
O        3.73016521      33.35477838      62.87713560
O        0.61725623      19.42668222      93.38651250
O       19.89975538      30.98394514      91.68191241
O       11.37759232      11.62909794     118.59107383
O        0.34200909      10.54668821     115.53338623
O       14.63677215      11.21928546      97.74081311
O       26.07116814       6.12187002      59.48482397
O       31.58420142      11.62701903      58.39659589
O       18.72388829       4.83548401      83.21390959
O        4.46865229      17.03686943     105.65582240
O        9.01829346      22.35454004     112.59310717
O       30.59968308      17.66850291      74.80724151
O       22.46761659       1.77158493     111.42743313
O        9.43438778      17.99424190      64.42156185
O       21.32713194      17.32527022     103.21375902
O       23.89375963       7.93394109      96.34795189
O        3.31066304      23.83782329      69.06652366
O       12.32007741       2.18981978      70.66530815
O       30.36004797      16.94311965      61.03309166
O       29.82646200      14.48047152      71.90635288
O       21.28522051      21.88744469      88.69886745
O       24.55081514      30.53918789     115.70911515
O       15.02583065       1.54925355      89.85657154
O       21.32510114      13.16822500     107.13575797
O       28.83141443      26.61169588     110.27379449
O       21.64807270      29.89931628      55.19022654
O        3.31606233       4.17739932     101.91671844
O       22.07070955       0.64189497     115.21398256
O       14.63372431      27.88191986      93.25312199
O       32.64380526       7.08719555      92.02918004
O       33.22623559      28.29022930      66.41924308
O       23.17325114      32.67157800      92.91462869
O        8.11255041      13.02754466      99.22631002
O        1.41719684      27.74892225      85.05772352
O       31.02595163      20.20304120     103.11314344
O        2.50419447      23.94266261      79.20221348
O        5.29245054      21.22206172     105.40300538
O       14.91657354       3.75077701      73.24251652
O        4.52255293      31.90551543     105.38375489
O       20.41365595      14.09508467      95.08388267
O       14.53121642      28.13521833     116.91873273
O       30.96575604      31.69250563      79.30417665
O        1.85566247      19.92748035     107.78865918
O        5.50997153      14.89844673      79.22614573
O       11.19336276      24.74175881     107.13101084
O        1.11958483      27.71516218      74.35734894
O       10.50251813      29.32018070     111.66099005
O       29.32097778      16.31973221      96.31570740
O       15.73593313      28.45250024     100.78549213
O       13.18593371      24.09085456     114.67735961
O       16.91887261      20.02559310      54.59382430
O       15.92519360      30.75748794      81.68672498
O        1.55866692      13.67442113      59.19986486
O       12.56330322      29.28806434      98.70817907
O        0.80226153       0.99518432      60.61600536
O       21.52245466      30.82948243      64.54335543
O       31.98063917       6.51992977     117.59453747
O       15.97266903      11.78198970     109.69301093
O       25.13527585      29.82030707      94.16822441
O       11.04302433       8.40167220      67.40730930
O        3.91090880      27.62424154      82.54076591
O        0.90288982       2.65630253     109.19834257
O       21.54218636      14.56934432     110.11645697
O       20.92045307      29.86006344      77.70821736
O       16.99792919      21.68014538     102.34062484
O       30.43158887       9.87264699      55.99130928
O       32.23095049      14.83652878      84.86232266
O       23.89357990       2.00695645      79.35873062
O       23.95434791      23.50004950      77.75988585
O       26.12677421       2.58867957      77.35909160
O       26.65702723      16.12030991     114.06417995
O        9.91565440       3.90281676      79.88042073
O       21.60723827      28.01759114     110.35390768
O       15.59913340      10.06043344      67.40060492
O       15.71509124      16.23265037      60.41125204
O       18.91535295      19.18867510      97.95180378
O       14.19930920      31.97369399      87.64132515
O       30.27203160       3.31702254     117.54426654
O        1.01824325      10.39616610      75.49217095
O       23.34057082      28.73747800      81.81322780
O        7.57461031      19.80495756      62.46087059
O       13.93546210      10.24359050      59.24644889
O       23.32068309       4.24880702      59.59748895
O        3.20129853      12.22178280      94.27970884
O       21.82210631       4.49747717      74.56892185
O       18.94527010      23.38233445     100.09206329
O       19.66427690      28.64866444     102.65429140
O        7.67223809      33.05324029      64.40557853
O       22.85660866       5.40882387     119.15843668
O       27.82783958      19.64011754     113.76978485
O       12.78285541      14.79352458      63.65135486
O       26.12278031      31.78212097     113.12655997
O        6.06465925      32.87486472      99.99246012
O       10.44112322      -0.16694183      69.60497190
O       25.32680542      16.90630250      80.05347743
O       26.92647272      23.72277488      60.53047944
O       25.83272449      19.40573179      90.02036601
O       13.50114765       5.10757680     119.13998760
O       10.34169646      22.97848291     103.62939488
O        6.28708173       1.37862852      67.17609883
O       24.82736897      24.19427211      68.85731355
O        7.00090315      -0.10023858      77.35237843
O       17.02850108      10.08033450     117.50489523
O       13.86814516      17.97627326      67.21337807
O       24.39881289       6.31140502      74.78059284
O       29.59764214       0.03426924      66.81908810
O       12.19415774      31.06918037      85.24312298
O        0.45869584      28.75377954      80.26014694
O       23.97387862      28.04376048     105.08143657
O       24.43888710       6.52147603      82.08020601
O       31.32779268      31.13592212     117.34473182
O       23.76414807       7.34887698      90.72099474
O        9.00015493      15.66019970      54.96228520
O       11.50629084      26.61224032     113.79798517
O        2.51554494      23.51031351     102.46752082
O       29.38707490      33.20142220      69.65110478
O        2.90669520       1.59622152      98.45228194
O        6.32048204      16.70981777      63.90223298
O        4.61748599      10.06266539      70.49883803
O        0.54487795      24.32883575      63.85020806
O       14.47471605       7.85493693      69.25033600
O       22.21319449      21.24553066     111.99344567
O       33.33061279      23.78033732     101.49264090
O       19.91900006       3.04894941      86.05819231
O        1.80849776       9.96490516      54.27298029
O       10.22636335       0.41672385     100.97105743
O       13.71586669      25.87637134      81.41245227
O       28.05300812      32.92054544      63.43942772
O        8.66151635      15.70352774      93.38211761
O       13.51472710      23.12702586      89.88042269
O       18.79539540      15.74737402     115.86378239
O       32.30570098      23.90755891      88.60631704
O       17.80963139      27.54060266      85.50298518
O        3.78274123      14.39640710     113.27142124
O        7.01373706      13.45735662     114.23009770
O       15.71771802       2.32934917      96.73852353
O       19.36447683      22.46434402     109.80683114
O       31.87409907       0.10343199      60.91983279
O       28.26837132      24.39992139     115.44522613
O       19.99051997       8.82433235     108.69392237
O       31.60608959       6.22400574     110.78304369
O       23.03611330      21.41122811     115.61756816
O       29.98063194       8.60727502     100.21941376
O       26.60232318      15.81592546      65.74908907
O       31.46865364      -0.08274446      91.24363164
O        0.41156682      27.65840895      70.32480700
O        1.97387583      16.47102222     104.21893467
O       27.38439651      25.65430466      69.79927193
O       27.12106760      11.64198756      63.47376793
O        9.62163991      10.67138639      55.41473309
O       28.90179129      28.85671373      74.75549128
O        7.80735295       1.82051482      56.71267409
O       16.89839387      27.65030194      96.85590616
O       30.95662098      23.53530909      93.27321402
O        7.57582058       8.68876520      68.89469832
O       18.42231135       9.55661046     103.78383092
O       25.72924478      24.01378053     104.45887953
O       12.95398823      22.99566810      79.20802732
O       25.91644539       5.73460934     112.81908060
O       22.98253642      28.12670933      96.38974825
O       31.40890389      32.17560624      75.85661461
O       21.80834399      11.58120889      80.04584572
O       33.44079899       3.32602279     117.24479547
O       17.37340063      14.36803229     113.52732686
O        8.79453478       9.13049449      94.92184718
O       15.48755222      13.26118686      59.80405814
O        6.23358160      24.96541589      94.96752982
O       18.21470757      21.23066704     116.21941526
O        3.52445008      12.30187509      63.72866721
O        4.52863233       5.88984876      74.39375664
O       19.19027082       9.79303084      85.69863031
O       24.04282108       6.10845202      56.77589934
O       24.42439711      21.38920043      58.62610411
O       17.06963897      31.36650519      97.13116826
O        2.04529595       3.30545308     111.39102877
O       24.36854826      31.09264481      84.83119010
O       13.91154939      13.07148357      82.66121039
O       12.77118533      11.47517990      84.24873015
O       29.56290394       8.85808601      69.75024253
O        7.84163445      16.44792263      84.90716708
O        7.13990358      28.89265864      63.53329597
O        9.73183482      13.12412381      66.26430607
O       18.37417856      22.94123030      96.60844865
O       24.34844542       4.76539602      77.55637576
O       19.19385237       6.12403227     106.01898692
O        4.54066806      20.29666296      96.73193389
O        9.49535369      27.66933857      72.60703531
O       15.98632550      16.34941265      74.65289104
O        2.34525023      14.02555254      79.83241761
O       26.32214075       2.14387338      54.62016594
O       30.21968282      25.97210336      76.71049115
O       24.16886539      29.38020821     101.84947370
O        4.48854928      24.56167455     100.30065057
O       32.12830860      29.11684925      55.88946483
O       33.35614128      17.07890330      95.48211730
O       16.95950952      13.22868513      87.98635756
O       11.55334433      11.90327419      78.91659781
O       23.82537989      20.02029955      73.19829311
O       26.75252410      24.38141096      86.07094343
O       18.36368720      26.42089667     106.21440325
O        5.91303110      31.81657370     119.30853024
O        4.40341116      21.67492032      82.26778924
O       14.83489005      13.89498510      70.20443891
O        3.70180933      20.65337650      87.73039090
O       14.31496553       0.91904471      74.01989503
O        7.29703673       2.89016803     118.99473278
O       27.98596286       7.23149040     109.95756910
O        4.46801460      20.92319569      74.29434059
O       21.53427066      11.80294582     112.08702493
O       14.06915546      16.98810256      85.85773196
O       24.19972348      27.03535165      99.76185507
O       20.11671532      32.12644205      79.78971667
O       27.24049336      31.28601406      67.30798671
O       26.03172414      21.19025632     107.74203865
O       23.29508115      23.65025499      65.15507270
O       29.11559053       6.53051955     116.38859231
O       26.45511489      14.75849591      94.80876513
O       11.50928489      11.90358526     114.23433899
O       11.89546048       2.62019253      96.17952070
O       33.04109045      10.13711404      62.26640503
O       20.39364107      18.75002528      73.24222533
O        4.84881843       4.02722579      88.54584177
O       28.64752359       9.61397586      73.38865383
O       11.38610462       5.10525540      82.62654039
O       21.48997330       8.30665460      99.79409724
O       28.43780878      25.21625804      67.30846626
O       16.64117279      26.10414366      88.76306261
O       18.59798637       5.34572289     103.15606408
O       29.33134079      32.71357155     107.63213807
O       32.20455389      -0.16147204     101.62409028
O        3.01297494      30.50911485      78.77788728
O       24.16956633      28.88978716      90.70033394
O       20.92521594       1.00720163      53.88528879
O        2.87063130      18.46593516      92.03677942
O       18.53849836      26.82008262      60.31468376
O       28.29069525      19.99587561      97.61437670
O        1.64616743      29.47747343      89.31656016
O       31.75792418      12.60936685      99.98937544
O       17.76013661      20.01250078     104.62773146
O       12.41751041      32.96921377     111.48432046
O       26.85401310      16.31873568      59.66804646
O       26.21795649      18.08838865      95.29587948
O       10.57836220      13.61592628     111.92669799
O       15.77068474      30.79818155      64.37454133
O       14.51051371      33.33375628     107.05328146
O        5.63734146      30.26322006      56.19708890
O        7.76924388       6.71148747     100.36677597
O       18.82815732      32.09416944     104.58404155
O       33.09676329       9.44852659      97.26233892
O       14.86205306      22.04597385      75.44200481
O       26.80349222      20.51562110      65.93854046
O        3.11095781      21.00102344     119.66744482
O        3.98923958      12.01105980     114.87773675
O       22.56952891      24.57197078      79.67014962
O       24.13472267       2.45367262     118.88604942
O       20.54288262      20.91812305      59.54909839
O        9.29676303      11.19950700     102.27510087
O        6.89974388      23.75842515     112.87370673
O       26.86156976      14.88997522     119.66780405
O       15.53216247      32.62773947      76.60653177
O       22.00861763       0.52075507      62.13316541
O        3.41883476      18.61462177      75.59462655
O       13.52360003      23.99930443      86.60692036
O       16.98376946      19.21469057      73.83569495
O       -0.00189311      23.52044232      58.01563109
O       28.90004888       5.79960818     102.00622522
O       19.70285963      22.44097756      79.06951691
O       20.20354968      10.08913183      60.18886131
O       12.61702295      31.76928235      66.08567978
O        8.21274640       1.12861264      95.00295279
O        3.60526100       9.34427384      56.30890324
O       30.56726252      17.13651488     118.03389274
O       18.47597564      22.14863071      56.34188317
O       10.25000408      21.38226175      96.56893129
O       21.64758030      11.57462321     116.71197279
O       25.20822757      32.58157939     104.07566383
O        1.35557054      32.66119697      77.77788897
O        9.25744268       5.00788902      73.69386984
O       15.89197160      23.43434680     118.47545933
O       23.70250923      27.41137599      56.94103724
O       11.73334916       3.69177881     113.57513418
O       15.35025822       2.08621456      57.31393195
O       25.72511568       6.26522894      93.07621504
O       30.91094937      23.13719270      55.54576640
O       10.54298552       6.54109402      94.04142509
O       12.58579766      13.75929958      89.96287075
O        2.14384414       6.47906028      63.48996218
O       33.18832423      28.72819258     115.49552703
O       10.02242562      29.62399656      96.86094638
O       22.19780706      27.53410932      66.93777465
O       21.40344171      25.00235449      60.87273607
O       16.01135732      27.16569483     103.78625995
O        0.73672582      19.09343416      63.60296117
O       30.21352235       1.04668246      83.78584882
O       16.73667452       4.59738090      88.00305595
O       16.64231008       2.76392401     108.00400909
O       31.65954044       3.27628257      64.65957293
O       32.07840768       0.84378619      56.48517817
O       10.24225523      22.66549741      64.45144746
O       10.07772558       5.47715962      70.00878308
O       26.15193335      13.15871266      71.95721210
O        4.67188911       0.74054359      74.65696145
O        3.71405538      28.59147790     115.99658493
O       25.22246055       1.38883049      71.97171974
O       27.07861336       8.85837220      58.03907687
O        1.01930597       9.36115240     112.11846383
O       16.93164562       7.09435936     106.39719794
O        4.01105429      30.80341730      97.58639114
O       27.31554523      27.40395943      60.15628546
O        3.63161426       3.16319725     117.35080324
O       24.88080348      28.66279350      78.86159340
O        3.93551210       8.62780526      67.11080519
O       26.73670872       6.88748809      71.56460511
O       12.77051276       8.04765333     115.59292193
O        4.91203119       6.72932994      61.64958971
O        1.29496586      12.61165132     113.84321829
O       29.45569069       7.92049782     105.94360541
O        9.41200145       6.63384224      64.81626694
O       30.75093563      31.00727592      71.49444624
O       32.22266597       7.06489102      60.59048419
O       20.29284264      14.15252192      64.27125619
O       14.66057404      10.03445416      84.55088877
O       32.72669377      20.99055101      88.93590668
O       21.70018450       1.48785445      75.44913242
O       27.77360702      31.62908791     117.95960138
O       27.40554597      23.02385934      54.88366859
O        6.11662142      27.03408832      72.59744308
O       28.97105777      26.22655002     103.59507502
O        2.35537151      28.88402764      96.86672661
O       13.05733239      19.90508893      72.08063808
O       30.59422719       6.57933678      55.34370342
O        4.37538434       8.70322839      64.63279056
O       24.35860817       7.92974085      98.90084104
O       16.68528465      26.39664046      57.96169004
O        1.54471421      11.96868691      70.88700427
O       10.31730059       5.25187507     116.47100625
O        1.46078296      31.42915896      71.76300262
O        9.53645833      18.51428173     100.58102343
O       15.87242993      28.90589296      71.75482027
O       20.54958237       6.03119203      91.79858342
O        5.16891892       8.70482984     101.08595384
O        8.17128440      16.44363338     102.91613606
O       14.66843334      24.23547614      97.13307912
O        2.19859143       3.11827761      76.20164551
O        9.95236941      30.75856402      83.61814967
O       21.24366414      13.64130458      55.98170127
O       17.22813161      10.34530517      75.35764629
O       28.15401409      13.40634787     101.60262136
O       12.95380412      26.84519641      54.56097663
O       15.33536496      20.79504324      60.39909205
O        5.37619360      22.11362148      61.62545107
O       26.83636195      30.51481868     100.59202707
O        6.02335418      25.29172774      82.36707266
O       24.04757974      24.71206422      57.44946573
O       24.43357105       4.33197498      67.62637240
O       10.22642068      16.39150628      72.24856339
O        4.96948453      11.43446837      98.05619189
O       16.11669033      18.19070471      97.26603160
O        6.93136186      21.72524313      91.38503595
O       25.27401061      31.35743786      70.74670378
O        5.20031904      28.31289749     106.24194475
O       33.32943732      15.56661356      76.23518749
O       21.09224342      22.43530897      63.61596540
O        5.06135303       2.23712965      70.68168289
O       26.16107163      24.67285058     111.24486510
O       24.21275478      27.01230925     111.32774278
O       20.24837856      14.97460165      59.78694591
O       21.83622865      25.83202475      72.26503505
O        5.57525590       2.33090083      79.66302745
O       29.11100891      29.42403045     101.66259323
O       32.39077664      27.94761361     104.43835497
O       31.99525295      15.55326622      65.54187802
O        5.21296896      10.71578164      84.11615349
O        9.00213258      17.55180563      98.43924879
O       14.77470038      33.20901176     113.13025175
O       26.01949553      10.74834603      69.95019195
O       17.29445626       2.48403362      81.42609761
O       28.04375763      26.49935856      79.93541238
O        7.92366341      17.33590384     113.68067882
O       30.70528264       2.27779853      86.70908713
O       18.68654252       1.05401886     108.33694696
O        7.53762709      27.03557659     118.77363842
O       28.77330539      17.95082174     103.20003862
O       21.50174341      23.91667895      76.15592968
O        9.30637045      25.25572591      85.55063572
O        9.07106632      30.93987276     104.78195989
O       26.70199157      29.62341502     109.32061872
O       24.11817756       2.71052317     100.34678408
O        1.58069803      14.31050882      94.23700687
O       18.79471187       1.98167011     102.07148735
O        6.13568622      22.72130886      69.12287991
O       27.17902068      22.72432126      81.70881053
O       26.45904648      24.87115453      64.13804047
O       30.30248866      17.53227530      55.88098577
O        9.66755209      28.91203701      76.65660856
O       12.28754692      30.91595856     103.89852343
O       27.65450622       7.06152743      69.23061491
O       22.91393808      16.80458340      85.32166970
O       13.50266016      13.24498563     118.31618398
O        7.35472026      19.49894952      67.78616706
O       26.79497286      20.72721095      87.50680315
O       17.31401671       4.82053893      64.22862058
O       24.90622633      16.00077770      90.82352714
O        1.22015755       5.45328562     109.91861291
O        6.43136830      23.73633104      84.90305135
O        9.55800129      20.08147430      69.62011480
O       29.35234157      21.28621470      60.93945348
O       28.02635921      22.57452246     111.83369820
O       13.26840850      17.16256613      54.13351813
O       27.42935772      14.18924612     104.23182901
O       28.93694507      14.32873992      79.31661937
O        1.19655749       7.46989814      73.70611415
O       22.61553859      20.04623257     118.99680300
O        2.83593459      27.68196745      77.22071460
O       27.19192178      27.99312864      93.68083982
O       19.24529251       9.95995505      69.79449900
O        6.30400370      16.72889721     101.27350252
O        1.96898479      30.51597539      75.87152232
O       12.57996064      24.92635548      63.31920550
O        8.04619433      18.41656598      88.13938568
O       16.86757947       1.80745883      67.31468159
O       25.79822566      11.44760010     103.19662956
O        6.51264704      14.55039003      81.85415217
O        8.68736277      23.46791046     118.51272647
O       11.32706917       0.24509717      84.39704653
O       27.08737820       1.74653212      86.77765099
O       30.70674934      17.51792761     109.35171702
O       19.29567003       8.77257599     112.34249509
O       13.39375034       7.11489838     109.55799104
O       24.04350179      33.35811168     113.45253186
O       20.34583997      31.73461865     119.24595389
O       23.98667092      13.45236760      74.85868132
O       13.45052479      30.71592798      73.48575723
O       20.48895283      27.36826598      83.89542186
O        8.82171937      16.89646247      78.55183157
O       22.51320366      14.94663804      90.41121656
O       14.66504237      19.17601017     117.07219970
O        6.67539009      13.78773588      64.99936569
O       13.76496331       4.38018096      69.32530329
O       25.41557472       3.57527345     115.32120802
O       14.41154550      25.97441269      69.47945765
O       28.68589853      31.50508780      95.44641708
O       26.16036654      27.21728938      64.88388971
O       13.30022372       2.96151173      66.59384767
O       21.32364502       4.42603731      97.08640421
O       23.47561846      11.98120086      83.18424006
O       30.92385624       5.81037382      66.59490568
O        1.36409983       8.73480155     101.69655391
O        1.19378554      24.24074398      61.35478107
O       15.05848191       0.06899819      63.00604642
O       15.02510204      33.59033979     119.64464001
O       13.92083108      18.37447175      58.45074089
O        6.11164945       3.58792722      84.33826862
O        3.78785273      26.24822428      86.62561230
O       31.41313673      26.63410051     114.48756458
O        5.47346459      33.04668366     110.90453806
O       24.89127869      10.32536479      57.58074564
O       24.69410659      18.95429371     112.78765660
O        3.49762044       2.10309855      82.61830718
O       12.43465014       2.24771230     107.93670389
O       18.27638686       0.65963373      96.71735476
O       16.46316039      22.40326863      78.71560411
O        3.77054953      28.33396190     112.07491162
O        4.60396530       6.46872822      97.19003182
O       19.68942624      30.24891034      82.99685925
O       20.53246902       9.91752357     114.60491165
O        2.67184299       5.52847375      80.01632607
O       31.42872140      20.19422145      81.63791290
O        2.47377917      30.47173842      83.34075735
O        1.87657549      12.62989987      56.60957150
O        2.55337508       8.41327122      96.96273088
O        1.51167018      21.65066519      59.28733663
O       33.20964855      27.37924238      91.49177291
O       29.77279065       8.45284016      82.45344459
O       13.09367587      15.69620985      72.70556969
O       31.32654384      21.49981875     119.92686473
O        6.12843441      21.71516880     110.10170332
O       -0.05727480      18.97462582     117.47087261
O       27.44975678       0.40204024     101.01181809
O        7.08371696      19.22749800     100.75244330
O        2.01795239      16.01181399     112.24110543
O       13.28021440      31.13966740     118.99674123
O       27.49424327      17.57629777      92.81535377
O        8.69545661      15.36019960     118.66342547
O        3.15435797       9.29188909      92.44894880
O       22.55327149      15.71942994      99.60335588
O        4.20253415      19.80142512      68.47110275
O        9.17645648      30.42366983      61.29267764
O       32.53527098      27.28141823      62.98238513
O       29.25792452      27.01833496      54.28142393
O        8.07944645      14.50720717      59.95327995
O       13.29173558       1.38647717      77.51096002
O       33.65963570      25.72329564      79.05299784
O       21.55594550      27.95142522      70.04573599
O       31.54441348      15.87942553      99.17551077
O       24.24934241      18.39229594      97.54060071
O       19.07874165      14.20612276      85.20475149
O       20.60494057       9.93001042      94.48483657
O       24.00465202      23.91888439     102.07367879
O       28.91184241       3.28718145      54.93238043
O       33.33398793       3.36810916      69.42092832
O       28.86008195       2.42521488      60.58715486
O       25.06823926      16.48436421     106.36994726
O       13.21208562      12.74064984      86.75840501
O        0.15128188       7.31550849     108.38657774
O       19.88970551      11.60429805     109.52356163
O       15.65008304      17.21175746     106.45877366
O       15.80899303      31.94017278     111.01574599
O       14.96523336      15.48845707      67.95043918
O       10.53840679      17.64502857     117.10108338
O        9.19690912       1.12185397      83.02285481
O       23.20054952      12.09460577      77.30070012
O        2.13254798       5.16310138      98.82374540
O       30.71577573      11.04852718      97.49563296
O       20.55576680      10.59499987     104.72815735
O       20.85299063       5.78905913      88.63010624
O       30.14419819      18.26252594      90.56085831
O       16.27759880      17.25412868      58.10290820
O       27.77173069      14.58375034      62.83919026
O        7.75331209       6.59129669      53.96966758
O        8.34017147      17.14447062      60.77086233
O       11.49182739      15.74630038      84.01312329
O       33.30111173       1.38623493      92.18257245
O       23.96486770      15.61391598     116.37462535
O       29.28401215      30.05601140     111.98698413
O       12.79381745      32.27599906      58.95134349
O        9.47409562       2.25856125      58.72684710
O       22.96463907      30.40288738     105.54825418
O       28.48794548      13.04083664      56.76728561
O       32.30669041      10.03132219     113.34886863
O        6.95097730      27.97094049      97.89230534
O        7.14636260      17.39549963      90.65737670
O       22.73900642       3.71262988      64.72422789
O        5.08536297       5.45511984     118.54693229
O        3.47128507      18.99264276      81.34961312
O       22.11567820      17.38301582      55.74201863
O        7.85533036      12.83891113     117.38989458
O        1.34740209       8.36735774      79.52124621
O       31.99380974       5.55616116     103.52703667
O       24.11027815      32.95344832      82.93567737
O        7.50273210      13.15429249      89.88285884
O        6.64513719       1.82266176      88.30362967
O       20.52755981      18.33394415      54.04361429
O        0.45001854      18.09441107      70.80132110
O       17.62932744      12.88994652     103.18599029
O       23.84710208       9.50137417      81.57316353
O       15.62939801       4.21218608      55.24520140
O        6.30017869       9.67531179      81.72875792
O       15.71569252      12.34473712     116.54707688
O       27.81150248      11.44361604     114.96485271
O       19.10086434      32.36162426      75.77222180
O       13.74839890       4.33648688      58.56155687
O       19.79409333      22.61916915      71.03425750
O        6.49501622      28.73810901      69.41444089
O       29.18094665      21.61476635      65.54134059
O       17.88612391      10.51607043      63.03497456
O       11.93048590      32.94947898      92.94438140
O       28.88805329      22.89961990     109.02036360
O        7.84922534       0.31011706     104.41215689
O       23.32885030      28.35608733      71.65745968
O       10.13212541      12.87251734      96.98180113
O       31.21157195      27.35899336      78.66874159
O       31.47631872      31.43344255      53.71435461
O       16.55886466      13.81394341     106.21381094
O        1.04131602       2.52948420      84.71257348
O        4.68595806      18.15912929     114.06646358
O       24.24647740       2.26474140     105.37140843
O       24.62421666       8.84832275      84.86549478
O        3.36016816       8.68284922     105.48987051
O        4.81083759       3.21143749      93.04793082
O       24.70961082       4.29509432      85.76127645
O       19.87511421      22.33725706     104.63103764
O        2.99902021       2.11665432     107.82252684
O       21.25625091      29.54612791      99.73660490
O       15.97899911       5.99454213      61.96459023
O       16.30274325       7.19079840      88.58093070
O       25.32855109      18.48757932      56.61689034
O       30.72198762      23.26305708      77.29777476
O       19.38616440      24.28753437      58.52754864
O       29.96731047       7.44067729     112.72730983
O       18.25792895      31.64058851     101.70754008
O        9.95438846      33.05480129      90.07596657
O       11.81611533      17.87455503     104.83986210
O       32.09400655      11.11470731      66.39117453
O       26.75527864      24.81896710      99.95256216
O       15.48221706      11.18490791      61.46381299
O       10.63900945      27.77899541     104.29742068
O       25.55432122      12.03322133     119.14884142
O       31.07306750      17.61368416      83.60193533
O        8.21163138      21.90029982      93.94832112
O       20.73908939       4.37776993      66.24631163
O       30.11935361      10.23485834     118.14498854
O        1.86097892      32.32307483      96.12829684
O       22.22606283       6.14697011     109.36331851
O        7.41158551      30.89777411     107.83105886
O       23.45196614      21.74246277      74.96668037
O        4.78731577      13.36214425      91.98540564
O       21.02380889      25.95596711      91.07577315
O        3.32798143      12.92501079     102.98547421
O        0.84229729      21.24908283      62.34640780
O       12.22996491      12.46920758      65.93391044
O        6.34001722      11.52631664     108.94989877
O       10.75619379      15.26892829      78.01000349
O        2.19454759      29.45465013      55.25024157
O        8.58032454      29.24195897      90.13759262
O       31.46667626       0.24412424      96.20445169
O       10.85936840      26.73558989      67.16937943
O       18.13196001      10.70298285      82.64187745
O       16.71288094      19.21849965      81.29260869
O       29.50054647      33.05710855      60.07650517
O       18.02018244      24.11872379      76.51601602
O       24.22088499       9.32264644      93.87758770
O        7.98920480      33.08071554      87.92898793
O       14.42612343       5.35650874     113.13714111
O       11.31075413       6.98788418     100.08472807
O       30.39605740       0.62464375      71.77198860
O       16.12692417       4.36003501      78.03009099
O       14.96178165       7.40839301      58.25670372
O       31.16451207       9.78294140      72.51093748
O       13.36400726       9.70315079     112.67151933
O       28.21161950      17.56875391      62.17570238
O       11.48956511       6.97878436      53.90428047
O       10.15606939      27.33244104      82.75145427
O       23.65794274      24.85269067     113.38333896
O        9.88987568      24.48773294     110.67188647
O       26.61477289      20.91493505      56.04338650
O       31.91210467      11.58238234      88.41619015
O       16.35017382      29.05590368      87.16374485
O       14.04106661      27.31845979      59.67141917
O       24.05370325      27.81956887      93.12658069
O       20.15032748      25.40272730      53.81911887
O       14.09533432       9.26034575      76.42530713
O       26.39447322      27.50900688      56.17914208
O       27.33053710       1.79844427      79.78094554
O       10.29798605      23.02455955      54.00856425
O        8.33323478      15.10623547      97.87679345
O        1.95293232      14.30261255     100.28898984
O        0.23077741      33.01445144      67.14193228
O       30.76520811      31.94406084     104.38491167
O       32.52059740      10.48163768     119.95158359
O       30.97228755      21.00344578     117.04363433
O       23.29093142      31.09660085      66.60362982
O       23.48714849      31.91967310      88.55804337
O       26.43824607      11.96012219     109.02031731
O       25.05766086      19.60747216     117.31298392
O        0.11269245      22.49308181      86.41018534
O        5.59837549      17.11903373      59.98965708
O       19.07573178       5.47089161     109.80577497
O       14.32050130      21.08740567     106.17484287
O       18.25591325      20.74286146      87.98108596
O       27.09027651      15.33747979     100.26545940
O       13.74338558      15.72161199     117.83120856
O       21.37643193      11.83937587      53.90214551
O       14.77990889       7.62314118      65.53701899
O       11.18592385      11.44001171      91.13774513
O       20.54795026       5.08079590     118.16313567
O       17.13264929      24.61824877      65.80491030
O       10.10758690      10.87492267      98.95447873
O       22.34323806      20.15823388     104.23518331
O       11.20362818       4.41485395      92.22285920
O       32.65698630      10.37744162      92.62888567
O        6.13351072       2.36103361      61.19995035
O       23.76037898      12.27164092      86.54066061
O       13.76076223      20.43954455     119.37114710
O       19.11213505      27.49445067     112.03842080
O       24.93385514      30.93735044      80.32126477
O        6.91304281      13.28965092      73.70166294
O       18.44087614      23.82569664     115.16471006
O       15.97406585      13.81133011      77.46776032
O       25.95410302      18.69715091     100.80886030
O       15.04362006       4.44423124      98.78969942
O       11.93462398      26.86340972      72.42527810
O       14.43998628       6.26211045      78.75963785
O        7.25578491      30.46530026      75.03774171
O       24.76943922       6.33112894     104.97380290
O       29.54824879       7.73147670     119.49450539
O       19.98766202      20.14357838      62.95647576
O       23.16238172      10.20731782      59.38190498
O       29.03972088       8.06767491      76.84153605
O       24.23436681      14.94602368      87.88399702
O        2.92087478       8.96593905     116.91690908
O        1.98384403       7.41713380      83.00001759
O       33.34560672      25.33659546      82.40687873
O       32.14627960       3.38184864      74.43526329
O       18.86817164      26.26319332      94.85628673
O       32.62209408      14.65406730     117.93221022
O        3.69412301       2.45066283      65.71187344
O        7.41927843      25.98821158     103.29566202
O       20.88107230       3.90025457     102.36084402
O       13.79243753       0.92074112     117.97062103
O        5.90772411      18.04468174     108.74614425
O       27.32288403      23.56466795      74.86668460
O       16.32269892      14.57953651      85.14587587
O       14.52251931      30.09655124     114.12350356
O       17.55132277      12.93199288      70.80122163
O        2.28685206      17.81428349      66.65841043
O       12.85913011      19.22030690     107.05846230
O       17.42042066       1.22587714      74.04688797
O       16.30288141       1.29963407      84.85460978
O       23.27390081      33.28729393     106.99119851
O        1.11251531       7.59136168      94.59112274
O       11.57113597       7.76398614      86.09673842
O       22.35365736      14.80510486      97.31888269
O        0.80797295      31.52697661     101.72628735
O       25.95740715       6.01379040     116.26762630
O        6.09877264       8.49464503     113.08824389
O       29.45121997      14.17703825      93.59288106
O       28.94479678      22.99378526     106.27331560
O       21.84196416       7.96178297     116.92340363
O       19.33751532      29.98922075     106.92357671
O       25.06889248      30.84428958      56.40220535
O       11.88172157      14.04816728      95.62718985
O        9.82535837      27.79376429     109.70188907
O       10.00198814      30.66071756     107.02762660
O        3.91296457      16.50350141      57.50389233
O       21.46888347       7.53748813      74.33755288
O       16.84744536      -0.11704512     100.42744576
O        7.79801855       3.69762073     106.96356594
O       10.03764738      23.45371267      80.54602029
O       17.42104779      26.44187489     113.52950300
O       15.55775976      29.85499425      98.66406438
O       20.89768039      29.67603193      89.01860326
O       27.14892808      29.43688884     115.78042361
O       25.80422873      27.73123863     106.97768313
O       11.90821033      12.76524822      73.79749616
O       24.80949880      27.24200234     114.46560778
O       19.20530678      27.58715840      79.24839681
O        6.86331557       9.24728112      54.66982361
O       23.35464129      18.76979255      80.09061328
O       25.12750305      29.34930314      75.74545110
O       29.44646695      15.07623314     117.50430660
O       11.79785208      20.09565982     102.95120696
O       29.20601483      17.59206567      64.88079006
O       30.67625808      25.75909927     106.72087327
O        1.73474077      17.27920899      89.10469732
O       21.35069210      11.97517702      74.17994772
O       19.41909368      16.11693440      96.05758893
O       19.78748242      14.45769881      87.40710543
O        3.27807712      16.73673042      53.90717304
O       31.28665288      20.19455222      57.68685152
O       20.45226466      13.53498673     115.42773594
O       19.97357013      28.24827754      86.83949165
O        0.95860042      27.21115913      56.77591481
O       28.52179544       5.98434019      87.22177182
O        4.84724030      15.03076194     108.86901750
O       29.62561845       6.97564977      94.74282856
O        7.78303508      19.95278323     110.83852914
O       25.37825010      32.36827145      91.67301031
O        1.57204346      27.48676094     110.99381969
O        6.60315656      26.86947088      78.31838462
O       25.16951771      22.54174821      73.53374522
O       28.35172729      33.02728913      87.96880932
O        0.27094193      20.35754269     112.61149849
O       31.66743807      22.94864117      99.45028914
O       12.71202609      11.85144867      57.06773490
O       26.00673744      25.72992283      96.36250307
O        1.13192459       6.99643626     119.84398736
O        3.64638497       0.72689056      53.74112062
O       24.04030978      12.24259386     106.67589095
O        2.11175792      16.68414737      60.12040339
O        3.88066844      17.91712874      72.88883169
O       15.83484208      16.47967288      64.05107948
O        9.55209478      13.73016145     103.04183814
O       12.13298427      26.09948168      92.21940558
O        1.15240579      32.52290225      59.18806452
O       16.01059739      28.17507546      80.32588228
O       24.87858646      32.89558280      62.19005569
O       20.58829173      19.25130030      80.31611044
O       15.59533656      25.34303046      55.61676102
O       10.19456795       3.86158280     102.09701199
O        9.03949721       7.01158658      86.58236519
O       33.25458061       2.19829716      97.71720005
O       21.85944030      31.16645661      84.24758584
O       27.81047859      20.74477704     103.96787795
O       16.23863626       0.32052999     117.12234194
O        3.93081857      22.01301926      94.55502603
O       31.19444528      15.78440887     105.78130385
O       32.57290660      20.30490400     106.01465406
O        1.80798511       0.81730824      71.39044089
O       15.26420112      11.87032268      56.37195742
O       14.32161160       5.14985151      84.38194635
O       31.00504258       0.51581387      77.65041722
O        5.34854960       8.41549762      79.56462006
O        1.08628967      32.11460809     115.68525046
O       30.85751732      12.51149173      92.00497358
O       10.97520021      23.44539924      77.49921456
O       26.63779779      32.71926582      65.44875793
O       19.66292896      10.13707143      75.97041127
O       22.43401581      13.56027709     118.58046310
O       22.24369218       6.94575271      94.88016776
O       10.39000940      31.41559688      94.06793482
O       14.76046991      22.89215945      67.02846529
O        9.79812666      14.85622698      57.09845210
O       21.20626752       5.78648739      60.66726402
O       15.45645031      14.06687209      92.98400617
O       25.72592385      17.64974284     103.81422469
O       19.80877385      28.68647949      65.27720089
O       12.90785417       8.93265095      73.69515634
O        1.90426781       6.45604553      68.58124154
O       30.96465437      22.26295181     104.48942562
O       17.69500312      17.08417442      93.46768999
O       29.72579737      16.99369084      81.19052333
O       27.56220944      33.09487673      81.22959211
O       13.70030684       5.10867433      87.09939248
O        4.02429824       0.64696208     101.99368357
O        5.91918436      26.82769569      61.53369847
O        5.22643587       4.04352160      54.70920805
O        9.53122917       4.12822671      65.63560659
O        2.42265082       9.92122958      89.45819903
O       10.95555596       1.07174862     113.98638496
O       23.26401863       6.30154860      70.23596616
O       18.21161577      13.86119149      97.18954914
O        7.65248757      28.47128809      57.96924491
O       15.12116397      29.50234071      54.60880381
O       20.07826996       2.12932375     114.26104443
O       21.92406087      32.03773503      71.83144041
O       32.47408666      30.03665696      98.88314832
O        9.11839412       2.44528485     116.80485792
O       10.97898769      31.18016642      88.80374209
O       25.57787877       9.21231301      60.88949058
O       19.68728381      14.88150044     100.78839213
O       28.51509905      10.01678448      95.15611537
O       23.26294705      28.28906964     108.31686466
O       18.15715314       8.23986231      90.64939645
O       14.68346083      29.68818595      67.82243464
O       30.34938476      15.93384318      88.88880219
O       15.39259771      33.34912327      65.56141642
O       19.60178189      25.66418127     109.21389111
O       27.60315884      30.95785585      92.68861407
O        3.01736792      31.80894579      85.72409965
O       33.10727376      26.06278538     117.43611279
O        6.13695301      32.29072357      84.01170680
O       30.29676237      12.58916732      81.59190424
O        8.77670730      17.27967587     105.65609479
O       32.41247699      21.86345671      91.31192421
O       27.13217474      21.45698074      63.55286119
O       17.17624109       8.04040193      62.40968260
O        9.55127175      17.90335374     111.48540787
O       32.26944241      26.81456398      96.91340701
O       23.67249707       0.31975529      54.58003356
O       25.00690963      18.25639578      59.24839096
O       26.11535646      20.64498130      83.23633362
O       17.48258193      25.92333585      68.70954722
O       13.00774055      18.26488862      63.42975622
O        6.22825626       7.68762067      76.66370108
O        2.86159154      29.33319958      70.87635374
O       27.52115024      33.18021307      97.35702323
O        5.87825386      31.91038192      58.82081955
O       12.69201856       6.08682182      96.20352187
O       32.57844183       5.05808968     114.97214818
O       13.94028366      15.47205262     109.67235249
O       23.86492886      18.13571249      92.76040234
O       17.30301367      32.84570845     107.11281763
O        9.28719825      13.30680420      81.96837741
O        8.37835701       1.64530106      79.89562844
O       10.38286744       8.25307773     116.83786378
O       32.57703487      15.03102075      87.43167923
O       10.30203736      10.05474584      59.98215731
O        4.54177007       6.26821561      64.34968214
O        2.64687874      23.27063350      66.24584373
O       19.57619308      10.17721038      88.23229613
O       30.73259083      12.78198733     117.77216405
O       26.21464152      31.87667557     107.03658491
O        5.89993643      20.71039776      63.86346863
O       30.85527081      14.38218523      76.27510710
O        4.29257684      30.75078632      68.09524269
O        6.68277152      10.40892264     117.22209027
O       20.97163200      15.57279218      54.63582866
O       13.03855264      32.01590455     108.72788708
O       20.45190171      29.98072577      61.28571069
O        8.43608574      16.77517666     116.12979163
O       28.58359901       6.49621814      66.84107016
O        4.98164436      18.82255437      85.38964163
O       18.45460779       4.43251635      58.79107041
O        0.74934528      24.47206811      69.87176364
O       29.44920807      18.79995578      69.27232319
O       12.68253296      12.19900651     110.31290271
O       24.37592396       1.56939159     109.00565417
O       28.38865865      26.39599218      73.20411029
O       10.60343945       6.86457822      79.10249144
O        5.35330818      23.76497272     104.32927551
O       25.08425444      12.50144065      91.23086239
O       31.61462256      11.40934604      69.96844162
O       26.38989088      13.42816825      83.48378904
O       12.96094527      16.08408147      97.36929273
O       18.39717161      19.22911034      76.66223795
O        3.04217978      15.81689939      90.82888934
O       10.68911155      15.97296059      61.09039936
O       31.51251841       4.81281603      78.76049478
O        8.66830991       9.04655995      62.92025922
O        6.54346847      15.41955534      54.91544904
O        4.05895998      23.78654802     109.44436359
O        9.38990825       4.44885228      95.51796103
O       18.39661130      28.35401443      57.05347231
O       28.12343091       8.30608455      97.33776797
O        2.35404913      15.81678662     107.47552463
O       13.07823517      31.09671958      63.20657675
O       10.02547640       9.00672634      69.99809130
O        7.01280938      13.98460397     106.13317560
O        8.05192841      26.75592655      59.90159212
O        8.47813548      19.75071313     103.84615846
O       30.98766173      26.17086833      92.10726248
O       16.17017848      24.36534525      84.08111395
O       19.72647943       0.24049292      98.85152189
O       33.43283825      11.51342159      77.91335568
O        0.36547450       6.88739642      77.41747447
O       15.02617510      26.19248549     101.71785476
O       25.23379371      28.04966558      66.95941657
O        4.10545922      23.60981269      74.67942691
O       22.24083424      27.54895661     119.07439302
O       22.09843674      10.87615275      62.81481093
O       31.96248490      26.74689407     109.42104482
O       11.54399295      27.04807403      85.55084255
O       17.69008233       4.35115880      96.22883494
O       31.48776055      20.76095869      94.05172743
O       26.19711966       3.87016804      82.15560494
O       17.26571607      12.57591179      54.49466364
O       31.90583655      27.38880830      74.54129923
O        3.16058997      21.40413381      70.14661364
O       15.63659748      27.65766819     106.24404837
O        6.44007937       7.76839857     116.26844540
O       12.15413473       7.18932807     102.65729201
O       20.66795599      17.35306116     110.03713739
O       18.79290220      31.74798274      87.71675000
O       28.09621467      -0.07845905      72.69982061
O        9.85134275       4.60104687     119.02743682
O       20.96680224      28.13406069     105.77274885
O       31.58865693       9.11355355      67.97643526
O       32.70882832      14.53954437      73.86767532
O       13.09464294      31.70668491      82.83483305
O       23.24985869      19.24065292      70.32679097
O       32.27259998      19.87725011      74.71128443
O       19.41817335       4.32099246      72.99464108
O       33.37912235      11.91056811      85.24829995
O       11.83438186       9.79204975      87.49031896
O       11.42268692       2.45003300      87.42711516
O        6.32266693       8.39939947     109.52281831
O       16.73262596      15.73901732     100.82740428
O       15.86283687      11.59528558     101.85350483
O        4.62566445       5.41223026     115.82734923
O       30.28092536      13.82204934     103.99731904
O       18.41820791      32.93471725     111.44457640
O       23.27184019      12.74359348      89.02582716
O       22.96965492      31.89887730     101.55932695
O       15.76433346      24.47417611      92.87028381
O        4.22673642      25.86380264      97.12048607
O       19.32429664       8.32832836      79.57941765
O       10.10014897      32.93633258      58.03300484
O       24.04966029       7.43458768      67.43228724
O        1.58516369       6.74423523     114.61264700
O       25.24039982      31.96713472      75.01371065
O       12.19535756      22.87286397      70.78670077
O        2.96575469       7.79250590      70.33398074
O       16.44894226       2.14097735     112.52369418
O        3.79675113       9.30291854      59.58350691
O       20.80122685       0.12516755      67.25209335
O       10.01429425      30.68439114      74.22868994
O        5.62424785      12.01327108      68.62388640
O        2.35116684      24.28267406      72.87892059
O       12.17820286       5.78273763     111.58815670
O        2.74652712       3.23643395      70.43054695
O       18.43289654      17.45211641      66.00360719
O       18.47102305      29.14615059      99.52275189
O       11.21975959      21.54342209      68.24842424
O       27.90174783       7.71926256      62.01252669
O       28.60599475       2.72241687      74.87093983
O       13.51438481      32.39543196      77.91714568
O       17.24442955       0.07591139      60.95493083
O       14.23267831      20.48163392      91.50736588
O        4.90132436       0.03491742      85.76872897
O       28.68448189      25.28525968      83.44812963
O       16.03776492      14.55916820      81.74824993
O       19.14332697      14.46569588     106.61262899
O        7.09215259      29.69224909      72.74193324
O       22.11072165      16.02536441      92.85196867
O       28.44689758       3.16138786      96.04687682
O       28.48119558      14.86942696      67.84138240
O       32.67450313       5.84126900      58.33275762
O       31.71881336      25.95226702     102.62360663
O        1.16670324       4.52601305      82.02558216
O       14.06590993      15.24762263      83.95338959
O        3.06822187       6.31346832      59.89317936
O        9.44833248      12.64384981      53.86952038
O        5.26782052      19.13062744      77.12018583
O        3.64889620      22.16639687      85.13322270
O       14.52209610      29.68555140     105.39181933
O       12.46988341       0.22114634      95.25463582
O       30.65115768      17.43717277     119.96621070
O       18.57263646       2.51229749      76.68294818
O       11.07282871      18.02568994      57.29407572
O       20.14428137       6.76681047      85.53200126
O       23.83891256       9.62650280      74.77951766
O       25.77710035      30.20892201      66.22060960
O       29.33007965       4.86900793     112.69979209
O        6.81267047      31.85671893      69.92371765
O       28.20247926      28.44116244      86.00817063
O        1.35406265       5.04554995      91.69170980
O        6.59199181      22.33708143      82.57281320
O        9.51901823      31.60711330      71.22822232
O       17.25472242      32.19361073     113.84999718
O       10.62302909      25.22205557      69.94727485
O       29.98378768       1.80928494      92.90641230
O       11.58156076      28.99414527      94.00359008
O       18.06617328      15.61527008      88.99240049
O       22.71615907       5.96001188      98.58560689
O        8.15809984      22.03810848      55.06566181
O        3.42762475      25.60894686      65.22014087
O        9.01912071      25.03094200     114.34009044
O       14.66866612      20.52106879      67.38625935
O       29.53716520      30.58366118      88.02885759
O       32.26082733      29.42012804      59.82289324
O       27.16239812      10.19020423      78.24663661
O       24.14961425      23.25843291      90.13917261
O        4.59687989       0.55305101      95.56898267
O        0.65195117      11.27901606     100.86920653
O       30.14526074      11.35325041     104.06130761
O       16.06179898      10.01033470      80.98327032
O        9.18420622       3.50751391     112.21381945
O       27.65582011      10.79390182      85.69400934
O        8.68948618      28.02919201     105.97833146
O        8.77830447      25.08139506     107.79087096
O       18.52828593       0.49699538      69.36128517
O        0.91445447      23.10548667     111.48134858
O       15.01535980       0.41186362      94.03425029
O       24.52675031      25.59455015      59.80630935
O       10.24218224       6.12243971     109.33172853
O       13.92761370      28.24204745     112.27902984
O       28.21965196      12.44972874      77.43379446
O       12.40687735       6.45185430     105.17087135
O       17.08472989      20.08659324      62.14253334
O       27.09214053       2.39620420      90.50346520
O        0.13111745      15.70809637     115.79288185
O       30.85947995       8.15301726      74.92311547
O        8.58772163       1.93037928      76.09809907
O       33.44601608      21.91188256      93.55424772
O       16.07152348       6.91531256     110.62800088
O       14.81833694      23.50650020      62.26688483
O        8.11180390      20.13193199      77.37164065
O        5.46203886      13.94660182      99.96404555
O        7.99870674       7.28889462      61.44879877
O       15.85380822       6.66302351      95.22902858
O       23.77704710       8.86454340     108.02708011
O        6.68717705       3.68471242      66.06539071
O        6.05965422      23.85377585      53.77007470
O        7.90506261      27.89985070      95.09343676
O        7.67749875       4.41239150      81.05825670
O       17.57496894      18.88265094      78.94425695
O       22.06032764      20.02240950      64.69824505
O        7.67605077       0.15148573      72.58193809
O       18.18880659      28.68911485      62.07088634
O        5.52077297      29.92199781     109.21041991
O       26.83053760       0.28996479      74.60919705
O       11.63860811      19.02730214      81.43580636
O       16.93988553      25.95397361     116.35097297
O       11.79650289      28.43471998     101.59593828
O        8.38936538       6.84133439      89.85490773
O       32.35710807      13.86296091      78.40381094
O        0.38711790      16.77780202      78.80810349
O       26.78730161       4.99220234      56.50881550
O       -0.15599184      15.30608979     108.73813554
O       23.11757381      23.35597122      62.01624300
O       17.77658229      22.46052367      80.93881574
O       18.67632833      18.55283524     118.99250707
O        0.78474470       3.91845194     103.56356142
O       27.04501048      14.44584665     107.07531895
O       32.47394875      24.93057183     104.87263268
O       29.61984617      10.61815375      66.86279442
O       11.56739358       2.98236135      55.00702534
O       25.36476877      31.33117225     118.90419542
O        4.59981276      12.48748766      81.34598367
O       30.40164692      28.45456954      80.98807469
O       18.64403752      32.95961762      94.01784312
O        2.51405332      16.62484299     116.08829233
O        6.54382087      13.75609557      62.47909618
O       20.61149874      30.33222690      73.53644913
O        6.02570185      15.62626025     116.33426644
O       20.25804023      32.55534352      96.37686311
O       28.54615320       2.90393785      64.14551154
O        5.55267226       1.38598483      98.21420567
O       20.41217370       6.75686970     113.89769978
O       29.36299339      29.32372724      55.42066267
O        6.34203225       9.39988532      94.04982297
O       28.30380597      15.47217856      75.38947229
O        4.60598493      18.47428394      62.89090869
O       26.40261607      26.54592225      77.93929735
O       29.82854250      10.00994149      58.80472926
O       12.70144434       7.95039440      61.34732578
O       32.78470460      25.67959511      86.59693096
O       14.10944916      32.42767726     102.63492277
O       13.88116522       6.21629525      90.66427148
O       29.37949325      11.92326524      72.90840408
O       27.79928387      14.07080082      70.39490397
O        7.76024111      15.05836283      86.89734033
O       28.96768305       6.55737359      84.00545086
O       18.58226038       6.48995522      88.80266668
O       28.24732562      24.31506946      77.38004429
O        0.56057294       2.18127117      66.73693615
O        3.91573044      12.10695694      58.23638872
O       14.34011153       8.44501506     118.92183188
O       14.94740904      13.29086846      54.08374277
O        8.24380120      12.00340844      68.33223185
O       16.90584664       1.99139889      53.93646026
O       25.34056542      24.61087040      55.30690880
O       24.70211128       3.07493724      75.31937949
O       14.52379775      16.30191978      79.42735498
O       31.71491913       3.44234978      92.21435160
O        4.86653251       7.27584878      82.00205345
O        9.65570586      29.20319132      70.54059166
O        3.15500929      28.25696899     107.89062309
O       12.45938053      10.11886146      99.14318020
O       19.35681102       3.45074423      56.21655854
O        4.04531359      28.27969151      61.07067779
O       22.95109206      17.63476284      72.43709724
O        2.01171716      17.47039231      77.16907008
O       16.31888422      18.33517962     114.37998534
O        0.48140375      30.31762257      65.05257095
O       23.69020721      24.23216908     116.65114480
O        1.69635590      30.45597425     118.33638385
O       26.44386371      25.20055779      57.73091438
O       23.51974421      26.46651021      65.04713116
O       21.11721097      22.12933291      81.76258280
O       30.34581973      13.67084748      59.33604306
O       30.76197652      26.89453310      70.30061475
O       25.72350763      13.50622058     115.97952221
O        0.44411025      10.13489664     108.06030085
O       25.54603779      12.96549165      79.00979524
O        0.95754260       5.28596560      87.90629667
O       30.01918198      31.22916823      82.87990598
O       30.97166791      22.54831818      82.16895723
O       25.13600829      10.05142407      97.00308554
O       17.70185618      28.09702332      82.09657406
O       22.04457428       1.76466097      90.43593540
O       11.69726993      19.29509493      99.71852318
O       33.09000651       8.83853769      88.67249332
O       29.47578558      30.76588796      61.41687828
O       19.33210152      10.40175565     106.98093948
O       26.77558215       4.99643721      79.24969992
O       12.36262476      24.17468014     109.27930463
O       13.78593682      14.31983291      75.03366077
O       28.37503629      19.03446413      55.22739044
O       11.78122868      18.16189095      88.10619251
O        2.01471117      31.53230407      62.00095035
O        9.37884659      18.18821420      84.64700777
O       11.34209595      26.33772392      80.28326413
O       18.36786404      16.70079080      60.32357256
O       14.01915170      32.70136863      85.01816632
O       19.23245932      14.96302712     111.03210340
O       23.23001759      32.07607989     111.32074220
O        7.70259085      30.82933849      85.28606267
O        0.77352371      13.21342237      65.45399185
O        7.12632285      26.06342594      75.36766282
O       13.59430628      16.15795599      90.68466535
O       20.04117534       8.94113865      54.31666157
O       32.45023946      21.85808521      60.34757909
O       24.43457209      12.62571447      98.75143592
O       15.23490899      12.22981342     104.79591991
O       25.74541489       3.88398955      70.17494694
O        8.61854385      22.48577832      60.54778476
O       27.54976367      32.95853111      90.33356527
O        4.22667707      15.69209666     102.99810894
O        8.41137437      22.78042681      72.42163519
O       16.48115501      17.12831504      90.33798164
O        2.47117108      10.66006578      77.91778244
O        1.36719977      10.52750138      66.17460909
O       31.26154958      11.29988372     115.80894999
O       17.33005524      30.44558385      91.14922874
O       14.17948272      29.94155221     110.26254627
O       30.81997469       0.55775962     105.79791354
O       18.03528345       2.47606502      94.37923304
O       26.44770374      28.33334179     112.64860247
O        5.60485971      29.39963687      59.27938333
O       16.33073415      11.15763959      95.64406246
O        5.61262298      31.04543211     101.67826094
O       28.95513937      11.11053117      92.23932484
O       19.24402646      17.12870192      70.94733314
O       25.70357501      28.73841332      72.10037366
O       20.07032352      33.04822792     116.77687015
O       30.95500197      31.30644943     101.84161163
O        9.05681988      17.86397850      95.65982994
O       30.54739147      11.59011417      85.23042520
O       16.77362041      32.62251660      79.87107888
O       12.77897909      14.53971882     105.32013192
O       23.88681581       2.51378589      87.25838021
O        8.35193619      13.00733825      78.19800851
O        1.78635423      17.58328575      62.16034043
O       26.88583227       8.32311028      91.98230721
O       22.82411907      12.12760069     114.43349889
O       26.98328216      27.05682255      90.57444416
O       14.38359949      19.54567639      82.04773520
O       21.90630137      10.34940251      86.03930554
O        8.43798011      30.18421543      87.69770836
O       16.36802827      22.22967338      70.56924908
O       10.70417636      11.89815987      85.49916806
O        8.71602488      32.37266294      98.43079616
O        2.60515834      26.27884288     102.56368836
O       26.60655424       0.75639184      61.06177048
O       11.34140812      15.63961847     109.02580359
O       29.08295627      33.01439858     110.35655185
O       30.39049861       2.74899605      79.45446601
O       23.39837301       9.36314418     115.24581401
O       28.00197671       9.80668723     104.29576399
O       28.89955854      31.02463305      65.13078792
O        6.16014585       3.77383948      58.00129797
O        3.89223911      32.64403952     108.59139680
O       11.73919267      29.79149124     114.19744725
O       23.15365403      26.92215306      77.41755821
O       30.78751224      19.35900539      97.31646843
O       25.60157583       2.09091224      95.08384546
O       22.85261084       4.45115761      80.33202692
O        2.68821818      26.93198318      54.77978905
O        7.89055228      27.10502976      91.93198752
O        5.73054597       2.39151761      73.21559324
O        1.72357063      23.96637212      55.07928078
O        3.10270880      11.46559956      60.89064574
O        6.21625177      29.51338745     112.30934386
O        8.11989095      25.10477233      67.80929709
O        9.79766506      15.19951909      64.75542177
O       28.09929445      22.18138760      84.19004150
O       23.60576678      21.94801368      81.53931156
O       33.76866491      -0.12373689      97.61876930
O        3.84931652      30.75943769      73.26428610
O       27.11529998       4.97920175      64.95531810
O        4.67626879       9.38744966      90.32265272
O        6.11978991      20.17799178     115.95602781
O       12.21052752       9.50507621      54.65051943
O       17.15388430       9.88828704      56.98216385
O       18.53280560      17.56787685     113.80577182
O       23.52319551      16.52252435      63.03121886
O       12.84710926      18.26421197      83.51743465
O       24.73440562      11.05865255     116.75400309
O        3.77614636      29.62692373      93.29644791
O        5.78111989       2.40994609     101.06102491
O        2.87807971      12.32658146      66.19268821
O        6.05513408       4.81937624      98.05022263
O       29.53658518      14.24337524      83.38997320
O        5.18809418      20.39019266     102.32339693
O        2.56036949      29.81571910      81.07341554
O        2.10536958      10.87213205      96.72921732
O        2.55931786      20.47170343      83.33584721
O       27.70221142      17.28895419      57.14180113
O       18.95250188      11.08976481      73.69814678
O        4.27830882      16.95160655      87.07646626
O       28.35283005      27.61999269     105.52079774
O        0.22876672      16.32380592     101.20134827
O       12.91592754       4.01818282     115.86364314
O       11.29598807      19.98591120     114.64306198
O       26.84014068       8.25621568      82.75556270
O       24.36205882      12.63542130      69.30167802
O       33.20637089      31.54374907      90.89336334
O        2.41191768      10.03404481      68.81788196
O       19.24278317      22.14371908      61.65745355
O       23.99494797      24.71799469      92.27367907
O       18.07276949      31.64941268     116.56537361
O       23.03400737      25.31435584      85.16447437
O        0.80467560       0.79212598      82.31578772
O       14.77591571       5.52003464      75.93970589
O       30.48711395       7.38842929      90.51928688
O        6.90895511      30.59380846      77.57308632
O        9.97751297       2.66800359      84.88634790
O       28.67155974      13.99201323      96.99344622
O        1.27909916       5.32909943      71.92974007
O       28.19429431      16.98719404      73.00746656
O       11.57318790      18.74851992      91.50051370
O       23.54106428      14.20183846      54.44033253
O       13.58160701      29.52929982      57.54747186
O        4.36895063       4.02100384     111.90277087
O       14.07934499      22.23804242     102.76158409
O       16.95944429      23.31302429     113.11952851
O        9.31432037      11.13375133      71.36901355
O        3.21552291       8.93753355      94.75392793
O       20.25450071       0.98324709      77.96045514
O       19.48116216      11.54374918      67.67928248
O        9.20263936      33.52739839      66.49833642
O       32.86139546      21.39571509      65.25076730
O       14.96763195      24.16779229     106.24907274
O       27.61007941      -0.18364995      93.07217940
O       17.83285507      19.48691894      85.84037052
O       11.46265996      21.87977151     110.92918332
O        4.69774433      26.58433824      79.86984806
O       26.10267943      11.49282103      94.93871685
O       26.46881334       8.13134033     113.58129333
O        9.50778605      26.54196301      57.83996778
O       32.24386501       2.93640869      95.28122193
O       32.19563395      11.79761954      73.66296296
O        8.87752780      31.97321039     102.48003796
O        6.79539016       7.45110206      57.23699598
O        6.86845632      18.19092797     117.25639000
O       26.69842901       9.17711588     102.08692473
O       17.71841129       9.11179297      65.86864327
O       20.20598522      25.92974585      66.06459309
O       32.57692676      18.63254470      80.12117221
O       10.62399947       0.17679083      87.21732064
O       10.11177876       1.07680796      93.12964993
O       28.52406566      32.08397849     114.35516691
O       26.73906066       3.23680774     108.52172179
O        1.93118629       4.12895861      96.07986096
O       23.91457055      16.47843372     101.79617595
O       19.42596074      17.02827108      74.67813231
O       12.14592998      16.24446858      75.94070678
O        2.53589422      20.40361901      90.39403442
O       14.19635826      16.46015803      56.17236912
O       32.53486878       1.96583066     100.49741141
O       30.25901388       5.92320087     108.20345263
O        3.67606020      33.04566753     117.92702309
O       24.56093461      19.33715409      63.20953348
O       18.77329060      30.29493721      54.60527355
O       20.41998572      10.85473894      78.09016010
O       19.56151733       8.13667221      93.08030054
O        8.55060107       9.90001704     107.00144470
O       11.42419858      24.26500349      94.39259425
O       28.81432675      31.11736183      97.94062355
O       10.97208641      32.51696730      60.50966083
O        1.41254587      18.76582699      56.04206395
O       28.96157251       4.57534929     110.17002969
O        8.91174248      10.76092536      96.74119987
O       11.78603350      16.97927442      70.31609354
O       26.40157784       5.35808431      84.10864268
O       26.32067606       4.99198640     110.40593629
O        7.48300858      24.20732085      90.79637808
O        2.06602416       1.69507415      91.01882099
O        5.86041515      23.39084147      92.89031997
O       10.63602933       9.25468622      74.20234167
O       31.54916135       2.78343728     104.66632524
O       19.01414123      26.43818609      76.77345853
O       33.46874092       6.48806826      56.23858907
O       28.95886526      27.00077531     101.32472660
O       32.88564985      29.59427800     118.60240009
O       10.71145988      28.20897527      61.39850260
O       21.43420158       2.22145473      70.24258974
O        5.75938792      30.76097967      90.53650637
O       22.93130773      24.14723269      87.67837697
O        9.83031034      19.88901652      61.61395508
O       27.58516706       9.23552788      71.18199283
O       15.15512121      31.96408039     104.89191471
O       30.83654761       8.41599817      64.67707955
O       14.11824451      24.42898740      74.25300681
O       21.62868907      27.96547386     113.10733616
O       32.07597042       7.59264732      95.76495501
O       28.41427325      20.96217628      70.73907172
O       16.68086218       4.82983423      84.34029676
O       12.42419805       2.96259342      83.63659320
O        5.85492148      24.29348352      80.04575464
O       14.76786566       4.08801571      63.39594108
O       16.91334703       1.10462955     103.86521155
O       14.09265153      17.03176357     115.13647978
O       19.51333969      25.55442454      73.87217076
O       12.04700181      31.71099438      75.54760919
O       28.54479868      27.43378886     113.75942282
O       20.38567955      20.22020909      71.02609257
O        0.74298078       0.59136932      54.97948931
O       16.11383950      27.98859711      69.18931450
O       17.39905028      13.48039896      99.79589918
O        5.05487153      14.35420917      94.73733141
O        1.13480287      33.11494630      86.74697623
O       17.88924953      19.29269613     100.57782799
O        4.35150305      17.35536099      68.02400115
O       14.67383454      29.13490083      76.47290360
O        5.01567359      13.05457735      66.55775709
O       31.72197713       0.94904202      63.32539809
O       25.91229712      20.76239370     102.56771339
O       15.88650210       8.72893735      93.81852529
O       11.22009572      -0.06852837     118.00759131
O        0.41536981      22.83241409      67.92743953
O       31.01714673       9.69940768     108.51040073
O       15.87000135       9.47830693      99.03118671
O       24.29465460       7.91627392     117.37394630
O       22.98213062       0.44854830      65.79294091
O        1.89600892      24.32773600     105.38640371
O       23.18478454      22.00257679      56.26935680
O        3.12876074       6.54502471      76.47566942
O       15.40137722      28.01103556     108.74359651
O       16.55125027       4.89964310      81.06129362
O       25.16229507       0.47175322     100.05012344
O        6.81213667       5.66766671      86.54316258
O       19.74734285       1.63880311     111.21977937
O       26.66541059      30.56584977      73.46742857
O       29.62549289       4.66916134      98.37459703
O        9.73458251       5.37725276      97.93606448
O       23.05626278      30.49246345      74.48794035
O        1.73086439      23.99392251      75.50799933
O       14.91734332      10.15372600      73.98981446
O       27.31042390      30.65487747      79.58543884
O       21.52208745      18.20284270      75.56215262
O       16.62820318      29.03054485     118.82434722
O       30.28996823      23.79921289      65.69193323
O       22.20918326      10.72764072     108.45984637
O       19.99622079      32.25181079     113.61196998
O       22.34652206      21.06584462      85.30630214
O       14.43405345      18.19323246     109.02841048
O       28.76294375      20.06247888     118.32518951
O        4.67960086       4.59165987     107.36486570
O        4.06153972      15.24829813     118.56962981
O        4.07531014       6.25576825      87.85814569
O       12.05710971       1.42342218      58.24517492
O       30.26518349      28.74123564      58.27446586
O       10.98805699      17.93706545     119.63373247
O       32.92311429      13.16666692      60.66943570
O       32.08232356       8.47341562      80.20488213
O       14.80239311       4.34234897     107.25952428
O       12.52444934      12.56242076     103.48713863
O        5.66720923      22.81497737      87.72522648
O        3.63068302       4.43860878      91.17411920
O       16.29939817      16.16684988     108.64152760
O       30.22723928       6.99648084     103.85728998
O       12.60935623      26.61517176      96.86399851
O        4.70172410      13.45229336      54.15522701
O       26.60736196      26.58532096      53.86536298
O       27.43069297      24.14902555      79.56603260
O       18.97176649       3.42919687      88.44671911
O       11.89638855      16.86697953      94.41974407
O       21.86311796       1.72453471      83.58482466
O       25.91884879      19.76067714      74.97017427
O        4.40570979      12.01476652     110.95654125
O       16.97146610       5.86029281      56.65123465
O        2.61399508      21.36001699     110.10327235
O        2.94600463       3.48877348      53.64076409
O       15.03323423      17.75004822     119.02744942
O        4.38168172      16.69980386     110.58691709
O       28.43995571      32.95586539      78.25638109
O        4.77929026      15.49262110      83.87776702
O       12.43807476      10.63684670     106.01834508
O       21.86602380       9.99861130      70.89639386
O       26.32825622      20.76945832     119.31508486
O       20.98048818      14.63737156      68.48717556
O       32.93248106       6.12421051      65.40722311
O       31.85356506      12.84967225      83.51108316
O       28.23335735       4.57600662      59.61439072
O       25.16791934       3.01867490      60.66306069
O       23.35800088       8.64921098      62.17161543
O       11.40487318      17.16293666     114.46641524
O       29.38840535       8.16554716      92.53630913
O       14.30176404      24.43486183      77.05930270
O       16.64719988      21.29549561     110.62225381
O       15.91080828      -0.01743489      87.18210270
O       33.10565494      26.33203402      59.65059437
O       19.01446752      27.15635901     115.46574659
O       14.78012895      22.80641729      54.41115879
O       31.12626580       8.88117373      61.80039960
O       27.48055292       3.83811008      87.71917718
O       32.78681970      22.95137054     113.47230413
O       30.07506701      31.56875820      56.48564496
O        2.77818779      23.73144525     107.53156693
O       20.89793543      18.42891499      84.97029883
O       15.03880089      25.72596784     111.92189437
O        2.04877043      30.23736340     114.17714558
O       29.35185407      18.84052899      95.06421932
O        2.03475490      18.35135129      84.86594741
O       28.89276791      27.31491378      56.80689372
O       14.39727782      28.43923971      96.89857449
O       33.03657542      22.31460689     118.24052474
O       14.63620344      26.71165945      87.34345803
O        3.80172793      32.53162071      65.35622645
O       25.20905809       8.00568110      53.44214028
O       19.09540703      18.55931592     111.55372486
O        6.01909907       1.50104102      64.55305618
O        2.28072636      23.07130914      83.26252691
O        9.67281035      17.73818462      82.08941439
O        7.80670787      33.14117414      81.45275987
O       23.27469373       8.99058260     111.64159295
O        5.04469879      28.82299488      95.47022113
O        8.42328948      19.87190164      91.76423870
O       19.28460060      18.86831015     103.22870585
O       22.65434725      10.59168280      95.92975938
O       13.18580982      13.41075612      92.35568207
O       32.68024210      27.65172369     120.25206672
O        1.51979861      20.86110981     100.72200969
O       32.93802372       5.93099512      69.44719752
O       29.85764725       2.62726003      57.35667243
O        1.18451379       4.58888584     113.42217329
O       12.58266038      14.34836044      56.51267726
O        2.50645992      10.48314257      72.54831340
O        5.62629425      32.54031597      88.66761037
O       31.81499101       4.14725278      72.01653292
O       32.13642918      22.37728276     108.25820820
O       27.78438106      30.35050895      63.16543148
O       29.41782450      15.00263067      64.82931278
O        9.89706037       0.22789558      78.72689666
O        7.60074593      10.63944619     100.00382174
O        1.52151118      16.03366687      57.73104650
O       14.71517856      13.16856042      63.30911279
O       29.84359506      19.30006113      85.80014755
O       20.50587139      17.41934339      99.07449619
O       17.60448262      31.23896557      73.66668577
O       10.15455034      27.05657052      98.05053581
O       15.60064391      28.00850605      73.92350096
O        5.67975927      18.96746360      70.90503216
O        1.37380710      14.19634821      88.85770107
O       32.38376253      16.98617175      59.50225640
O        7.61572560      12.14771203      60.12274952
O        0.88448896       8.19656794      66.89700309
O       29.57309170       2.43973247     111.44049706
O       17.87244308      11.54910612      79.57780719
O       10.98367128       4.97026100      87.10478043
O        1.48727694       8.63753374      99.28151189
O       21.77545749      28.32929245      75.13642865
O       21.85920931      16.23541311      80.20874009
O        2.32124655      22.76728473     117.30745897
O       15.20441065      12.53725452     113.90423974
O       21.85439486      17.62184704     117.96895151
O       11.84926083      24.99566612      98.74236555
O       17.97437181      23.06700686      93.30278559
O        9.59977142      10.64795864      77.73992730
O        0.89003316      17.75396978     108.77574430
O        9.79676238      21.36945226      78.52155793
O       29.58567888      19.17405303     105.95567505
O        7.38693504      15.60223306      95.66082968
O       18.24116324      15.75564142      77.18611178
O       26.16455202      11.30123221      82.17441160
O       14.18283852      32.52786193      60.94594515
O       13.29354253      22.07364942     100.12330357
O        2.51688129      26.62989769     113.80590908
O       16.40852274       7.95287055     103.95550430
O        0.27084223      32.45963095      75.37728089
O       33.32959607      32.87701614     104.99091104
O        3.33882156       0.32318555      76.93571901
O       30.18188887       5.85340100      76.91807424
O        1.11017356       9.55927671      60.58427530
O        5.42632660       7.24336846      84.97647488
O       11.17976009      31.96258529     113.21599138
O       23.43536589      26.77660681      61.80604567
O       32.76760792      25.46924551      93.74640614
O       16.91230478      20.09316506     106.86883666
O       15.73654120      22.99803939     104.32284664
O        6.01729258      23.99073226      73.51680977
O       16.06864950       5.19046323     101.17003346
O       26.63201787      20.95785626      96.01872559
O        2.43064912      26.68807498      71.48713867
O       26.72803309      24.90675576     117.83597009
O        2.46327037       2.16587478      59.22365196
O        8.50908378      24.52658605      82.56925637
O       31.80610844      18.99520456      92.20457257
O       14.55199383       9.90174456      87.10012590
O       24.90816597       9.52206859      90.91026535
O       17.55412010      15.15229812      56.44902704
O       33.25656125       2.45819593      71.82120550
O       23.66861931       6.26694159      64.77861056
O       18.52366899      13.29656446      72.98981619
O        1.68500486      13.38006829      68.66977549
O       11.39333455      23.84945109      74.85061844
O       17.67385871       9.53694594      60.26567009
O       32.40407134      15.49118372     113.26653129
O       19.94470136       7.46412405      71.29757698
O       20.52010031       9.74470677      83.54571690
O       10.77836381      -0.01147025      72.92284190
O       29.05597240       9.87068629      62.98511797
O        0.87023765       4.22643121      78.30038973
O       21.71186452      31.25661036     115.83117136
O       11.11755605      18.46027382      78.28873574
O       27.41985176       4.47663943      91.49858387
O       17.73490509      30.85939095      85.32481649
O       28.25756195      19.48569614     116.12652945
O       25.41187688      25.19015338      62.01671514
O       26.57732302      19.28573405     109.08670243
O       30.42415504      17.47423747     115.72152827
O       10.08781177       4.47249800      76.20068890
O       29.39573116       1.65418008      99.49965798
O        7.63650477      18.42316688     119.82655304
O        1.43606742       2.90317836      73.45229446
O       14.25802550      18.85943524      70.04298058
O       19.05264437      11.96872989     116.86400074
O       31.97085358      18.90618704      69.34465043
O       24.32786361      21.09325391      89.01225056
O       26.19421299      12.64582174      60.93686561
O        4.30882979       1.23032991      88.19570440
O        5.78021578      13.75865149     111.72791794
O       28.67124913       5.66451350      75.10117410
O       12.29696459       8.81286630      93.34210441
O       20.97646080      22.90498950      92.00733243
O       31.04003880      24.42531248     114.10900847
O        4.26641105      14.35728171      89.20230747
O       25.24469575      20.01784850      93.77289300
O       10.58396875      15.38329461      90.96061414
O        3.60464673      16.11166113      64.10433543
O       13.38338638      28.63168887      61.82420744
O       15.24735168      22.99777127      82.15672254
O       19.22001645      19.15428840      58.80764132
O       25.64662911       5.03737168     102.62881985
O       28.84260108      21.80980956      90.76335326
O       13.93041583      13.92244785      98.24558510
O       30.22393490      32.47309917      93.71822483
O       21.35721020      18.33505077     107.21385019
O        4.85400228      20.19125745     107.66474343
O        7.25539835      21.94760884     103.67403151
O       22.13227351      19.95908444      67.13801300
O       29.56752510      25.83505919     116.91742026
O       11.37928417      22.60690543      60.90317109
O       23.34559633       2.61110832      73.22390756
O       10.91200722      23.66966349      57.39507098
O       33.23035546      30.62167473      73.90544077
O        7.55926996       6.84344017     114.13344573
O        0.29115727      11.93505221      98.36089421
O        9.28124682       0.21336065     115.62478082
O       25.44696020      25.17674979     109.01564028
O        4.60542096      18.28796821     103.23517595
O       32.05342995      24.55093842      97.69476366
O       30.17341557      11.09613102      61.07559069
O       16.89433489      16.09000383     111.64856902
O        8.82555960       9.74702865      89.26406796
O       30.35466756      22.88682344      69.24346854
O        0.66349024      30.59438829     106.25040497
O       27.95207134       6.62955102     107.60723422
O        3.21913695       8.01457521      54.15141849
O       13.87198562      21.08559601      80.32371435
O        0.99980395      27.24758662      98.23723102
O       21.03999093       3.39386946     106.48664718
O       10.25228613       7.12386182      96.36785865
O       13.90860985      10.73006142     118.77424746
O        0.81489492      19.87369059      66.56201420
O       10.92484611      11.14237581      94.31058993
O       10.05235396       8.49829287      91.07518997
O       27.89555780      10.23034310      60.16958198
O       22.64824073      27.50271115     102.81136823
O       29.24946550       5.56419105      70.14724033
O       25.60635093      11.85265689      65.80714263
O       28.43702285      23.73402387      93.17462932
O       18.35501659       8.13689397     101.69569789
O        4.96181593      28.99328593      77.12287064
O        9.53070398      29.82700955      65.42494566
O        8.00610063      30.98490279      93.65161381
O       21.00044948      30.82076048      94.89656250
O        8.39051518      27.47199317     113.50121437
O       27.78269881      13.29164814      85.73533984
O        2.03013661      32.21968806      98.73486451
O       22.84367021      31.00232933      78.39773984
O       30.23819975      25.19771534     100.00373471
O        0.01025247      11.52598436     117.81257945
O       22.49475252      18.73870775      89.83785307
O       25.99662045      21.60161329      77.53410008
O       19.69678860       3.58073455      80.92506890
O       11.25761279       4.63065504      62.69129127
O        7.86688979       2.12671387      86.41380881
O        1.14748963      19.32191636      75.78268560
O        6.23475708      16.15126350     106.87248614
O       16.56141966      12.80100478     111.87039879
O       30.49408015      28.23325715      61.45839489
O        2.97311636      25.65164243      84.38163683
O       20.39196364       1.27180303      88.69397850
O       31.88176859      22.12197304     102.09783556
O       11.64979711      25.79658070      56.64335529
O       19.35220304      27.74266218      69.11385214
O        2.37966638       0.37588338     112.12133822
O       24.32778698      18.47827900      54.41305559
O       21.85127887      12.11399158      60.34498092
O       30.24709593      29.45299169      99.29564597
O        7.54514089      30.46401219      82.92252793
O        7.30488623      21.26269598      98.03208403
O       21.57372168      19.16893721     101.51935273
O       24.87798679      26.08531228      73.25715526
O       14.85294184       1.50411666     115.12896466
O       17.47454576       9.54691665     109.89062799
O        5.31491293      22.57341056      71.35327465
O        0.30417487      29.84928382      57.90272744
O       18.33797606      22.03006269      59.34173263
O        0.40065779      13.29420113      62.98170963
O        9.23836983       8.72505979      99.96270688
O        8.41198727      10.11491257      57.48566569
O        2.62047651      26.31142001      62.05419298
O        4.49631015      10.26869831     112.83826342
O        9.66126402      30.15133684      99.32952182
O        8.70312217      17.94447222      76.46139813
O       16.73027625       9.59717253      70.23880823
O       17.87493664       6.08808415      93.33509447
O       24.13565927      28.14699580     116.73621273
O        3.33475111      19.15096492      54.59768355
O       19.28844953       5.65565980     100.54281099
O        8.19447785      33.23966091      92.06889940
O       16.11599194       3.79024396      68.71286287
O        9.66401318      21.85291722     105.82171518
O       23.41045971       8.66709061      55.70345250
O        8.73749659      25.02418420      64.72191274
O       26.29675554      23.09547804      88.39749179
O       29.38624974       8.38244790      86.28051145
O       25.24885537      14.26426840      96.94352174
O        2.28633934      21.00953216     105.62685853
O       16.94552631      10.95723474      92.67426558
O       12.50149538      31.36304887      69.07525169
O       16.26828879       2.32164825      87.76691690
O       23.22401809      10.92818973      92.17320175
O       25.98484775      16.77659273      97.66393598
O       15.10905230       5.66561595     104.30253787
O       22.52773017      15.14938649      64.81552629
O       18.80962088       7.67345707      98.33444075
O        6.71466571      10.63973783      89.81571052
O        2.97541525      12.91946505      87.25291823
O       25.05865556      17.83084403     110.67683763
O       21.99954841      23.58172822     110.20168299
O       10.72034541       7.80613608      72.33561596
O       28.06541240      15.06124194      88.78629097
O        0.52883023      12.72230333     108.08471974
O       17.89990483      29.85119542      95.32191737
O       22.42043906      23.02049144      58.32655926
O       18.56301830      14.72385448      93.01100800
O       31.60448031      29.73030891      63.06873375
O        8.43940193      28.37948552      54.21079025
O       31.85344423      28.29628457     100.89039193
O        1.09697482      31.90579300      80.24098618
O        4.80732960       4.86745021      82.04962325
O        5.67420397      19.39995671      91.80019267
O        8.70845896       6.67237069      81.21867977
O       14.78075666      14.61931791     107.58850191
O        2.99197978      17.22900806      82.91839611
O       32.88422067      10.49723034      82.78816401
O       10.13472651       5.12096995      58.57624701
O        5.39761908      26.76860588     108.93794193
O       26.98252455       3.29184301     105.71222300
O       24.03251574      18.14387847      65.36558408
O       20.84069686      22.42553567      66.35748872
O       23.00351474      15.21981488     107.97810180
O        1.78533538       4.53254147     107.64497670
O       12.63642186      16.72474122     100.16388926
O       32.75514708       4.12609101      86.62340012
O       14.61830215      21.39503633     112.78125490
O        3.55334414      20.52212332      78.74077373
O       15.88913517      26.81401458      94.88151970
O       22.71921862      10.65342927     118.71086948
O       33.37539793      12.88635040      54.32905928
O       19.61853625      25.39760122      70.39615041
O        4.39368804       7.01634972     111.37229552
O       31.98617622       7.84460019     119.92081871
O       29.06817216      19.88783416      80.36118376
O       22.26922790      19.25748697      62.27310162
O       23.42804787      21.80019945      68.54859349
O        7.31433575      12.25446786      83.81438455
O       32.60607345      12.32902362      56.35543401
O       31.04212202      19.19093042     119.45375931
O       27.53928309       2.13813238     112.67791502
O       18.28601493      26.20014897      83.34630370
O       33.18303895      30.24941327     111.17920166
O       25.11058457       7.44253677      77.42086287
O       15.57652252      12.09765421      75.92023479
O        1.49158751      19.31406068     110.88766958
O       23.95478293      16.27125498     119.43638824
O       21.06311045       5.78321158     103.96432434
O       19.29122398      19.04790995      56.36634903
O       22.93069586       7.66771800      76.25027200
O       30.87296374      26.85583551     118.76668478
O        3.68874821      26.87550532      99.42915062
O       17.19291130      17.76059460      55.14592990
O        5.42459539      11.82920874     101.89906114
O       18.12890010      13.46620615     109.48971208
O       20.23045394      31.26489681      56.70395056
O        5.76680090       0.85901836     118.23713170
O       26.81324028      23.53785303      95.49941375
O       10.42706401      29.22777606      86.29165293
O       20.08352489      29.72966972     111.74490997
O       30.46630612      22.53696975      84.74990865
O        6.75587039       9.58061690      73.51087722
O       23.51201215      23.20539284     105.54987355
O       11.63580734      15.62337296     119.05008781
O       12.25175247       6.55502649      69.12295249
O        5.27291912      18.11916296      98.31487428
O       25.87090386       8.76182391      64.84077143
O       28.70903140      10.99288907      54.70485694
O        8.12721095      12.83299869      57.68654945
O        8.90200979      19.41927561     117.97233532
O       12.51777490      17.76111262      73.75433532
O       26.66129000       0.17097738      69.12238982
O       29.44389610       2.40113058     108.87098499
O       17.10021410       4.34318703      71.19205079
O       22.45938732      27.01094892      59.27464327
O       22.22518381      25.09147678      82.09445566
O       17.81847524       5.30308839     114.32126563
O        4.51055213      28.46533168      90.42546369
O        7.06385781      32.44335023      56.77558982
O        0.93875377      25.05820959      66.87685215
O        9.42509894      21.21490354     100.28148050
O       13.75800675      12.32704352      67.56954527
O       13.24359641       7.53049472      81.94726715
O        6.61580905      17.18011153      66.54570926
O        8.39388425      15.13982638      66.82984296
O       21.03471668      15.51029591     104.80271686
O       10.06712416      18.66303365     107.24453606
O        0.61611060      28.60143453      82.68633900
O        5.43625945      23.48350858      64.80826430
O       17.97510825       2.82131109      99.19269614
O       18.95883405      24.06757002      63.18871093
O        4.62225732       0.52905428      81.19435314
O       17.41931503      26.05860717     118.79822964
O        8.52571378      33.27427489      84.74985461
O        4.81206050      16.64645372      80.80819554
O       33.80514315       7.16282250     104.22121528
O       29.48198773      30.80567501      68.34569756
O       26.67336725       2.16064874     103.28412934
O       12.64270960      16.28796007      58.42918098
O       15.35322204      14.05573778      90.45966424
O       31.60264569      25.01756871      69.94896109
O       25.70175773       0.43781350     115.79703737
O       31.94050086      25.78735783      66.82065158
O        7.86954856       6.01044079      69.10813896
O       11.14133199      17.26447629      67.92752742
O       17.21462431      23.66422250      88.17106324
O       18.95190597       0.54994223      80.74217983
O       13.98443827      29.60443264      87.70265416
O       29.94788764      25.25641891      95.10027900
O       24.00092794      14.92690852      71.43164046
O       19.16679288      14.72764777     118.04273940
O       15.09458894      25.32038232      67.20563741
O       10.81536440       1.91872717      65.91656967
O       19.33507759       9.86591032      99.23232122
O       27.67307813      17.40722849      90.23126588
O        7.30349902       6.06093442      74.58373065
O       14.21161919      19.86761478     103.66580958
O       19.42128365      28.94638503      93.35207205
O        4.38894120      14.70012982      86.14085282
O       23.24546009       3.30481505     114.40932301
O       19.39082298      25.21920091      97.44875229
O        4.76083368       4.72224846      77.36741349
O       23.69325277      17.67117556      77.83496801
O       21.87451857      20.63242729      91.48255273
O       32.15135926      30.00997408      80.95024607
O       31.40666702      14.81375252     101.97340701
O       25.44102525      10.88158990      88.66857590
O       32.79442571       0.28032530      85.39480005
O       23.90342835      30.95015783      54.30914040
O       26.13852152      32.46022091      58.94008724
O        7.33376686       6.42672877      63.69139045
O       11.74964475       8.82163611      64.21683571
O       28.03150866      13.53176002      91.61030354
O        2.74255781      13.56151152      74.39773105
O       16.67586248      18.87385190      91.90876090
O       25.05743870       1.52930340      81.55611570
O       10.69645360      31.45127526      81.21036346
O        6.30117844      11.26671550      64.52170087
O        0.18698154       0.93303651     107.20753394
O       30.89901425      21.04927289     112.19374580
O       14.32904583      20.07387868      76.58484983
O       17.83580988       7.95034936      55.56828421
O        9.83769811       5.77721167     113.25760140
O       32.09390015       8.34298457      56.28796384
O       18.80864973      29.16156742      77.12182140
O       19.92202045      22.50470544     107.18274900
O       33.55721734      30.15575564      86.39642220
O       21.82876576      28.20553906      91.57852838
O       13.35045849       1.90434138     111.52458739
O        0.05679303      12.35871510      80.75011367
O       18.97171598       8.47532876     118.49839777
O        8.56211545      22.75593921      86.27911731
O       21.74977916      14.32702616      84.42269372
O        6.50165866      27.95035406     100.96500989
O       22.41627390      18.96258608     115.90114379
O        5.46906758       2.03117671      77.11272699
O       25.82322251       7.83719959     106.46493015
O       12.03843694      23.60036606      91.82581634
O       20.77150343       0.94221788      94.98538260
O       24.11402473      26.56163692      79.95493352
O       11.67714215      20.37174121      54.21223281
O        0.68972071      18.97144635      60.55035826
O        4.74144960      11.07252956      73.33196416
O       21.50252079      30.35187828     103.16337849
O       21.08736058       2.70417217      60.32924459
O        2.46934434       9.38404575     114.47846038
O        1.60269792      25.42206631      58.03592354
O        1.92342718      10.21155295      63.37270797
O        2.76402148       7.39040472     108.13069799
O       27.59238099       4.58500752      93.86010248
O       21.54441561      12.68250270      96.64755263
O       23.64158916       6.84661748     102.77526985
O       20.21592080      13.01969633      91.59476815
O       31.25923460       6.54949887      85.35178110
O       29.95231904      31.29281549      74.06948938
O       21.75438413       7.66372234     107.39278555
O       25.44355701      10.16483803     100.18856101
O       29.89636890      29.54265093     114.51729401
O       27.11473161      16.39836909      83.64230864
O       22.75957323      25.37050111      74.74211773
O       31.54380490      13.03653875     107.34972202
O        0.57643388      15.19758975      98.45890832
O       29.57980954       7.43993228      79.10743275
O       20.04831850       1.06650060     106.13622446
O       11.09171274       9.18646866     101.38050297
O       15.59694361      32.53694524      74.05257874
O       27.18139651       3.74014836     117.35861284
O       31.49999190      16.91470063      71.62448595
O       25.28662552       1.75182024      97.75824226
O        2.30273820      17.74493910      96.02302474
O       27.34071901      18.75276613      84.67100053
O       22.32120254      30.37496868     118.06817207
O        7.63804163       1.33684984      97.30093382
O       11.69881508      13.68243891      80.64208440
O       18.33718400      33.31375265      85.72483786
O        0.24891986       9.60921608     104.36159797
O       21.96863694      18.68282288      95.81677184
O        1.59532498      23.40131305      93.97893440
O       27.73522452      18.37565516     110.93468002
O       32.15554863      17.74843219      62.75856754
O        5.65034925       8.96970742     106.88836257
O       33.10785748       0.70607620     116.98672346
O       12.10610161      20.27722331      94.94707439
O       25.92750570      16.19506591      63.40505935
O       12.39757207       9.44602883      71.30580686
O        9.00194383      15.35459139     112.27209644
O       23.96040703      14.05520346      60.11098972
O       24.26161516      21.48974889      71.10656288
O       16.95542785      32.40721572      58.13480650
O       20.49686915      15.90738474      89.24521061
O        2.84302473      18.59581075      99.15623218
O       25.96639770      15.15811454      56.78725299
O       13.49589294       9.23475246     101.26539909
O       16.53731618      23.69618782      57.20473732
O        3.67364260       3.92738430      63.48686514
O        6.70259291      24.88891497     109.98475225
O       33.29625135      33.07765176      69.88764780
O       21.68615011       8.32120295      58.90228929
O       12.31185688       2.04661263      73.39693925
O       10.44540199      18.90631400      72.18202000
O       11.63418084      31.76291287      99.03594226
O        6.40070185      19.61466373      83.57825139
O       15.52439496       9.40694308     111.32780529
O        0.17827951      14.79605700      91.84628539
O       19.94880323       6.68216728     119.89920803
O       18.67056450      30.05972984      79.61426176
O       27.55064468      31.33025486      70.21986755
O        5.77441735      19.26271787      88.98452358
O       32.23982381      29.37215207      68.19153095
O       21.26403108      13.85463361      76.11957847
O       17.29651677      32.84855195      82.53929606
O       14.33469465      13.94272577      95.84810246
O       22.79808590      13.12636294      62.80863931
O       21.55511607      13.20564334      58.27156617
O       17.69887419       1.85358423     105.84323016
O       28.34317602      23.56988249      62.97652754
O        6.53293825      30.45697754     105.63225109
O       28.31030523      30.72172569     107.94759670
O       32.35158731      21.02014542     114.99680717
O       14.53424953       2.09657893     105.77569883
O       30.30012671      16.54949048      85.67859065
O        5.27338118      25.71929199     113.40645237
O       33.30749213      22.22892882      80.40955845
O       11.93022745      17.62589882      65.50457000
O       12.13452473       1.71479705     103.05723150
O       25.00289824      31.02067996      96.44100488
O        4.48091771      27.64626701      64.12546650
O       30.32038770      19.82187113      63.74199784
O       10.19956058      21.71829622      75.02446989
O       22.32096772      30.46892923      57.98776693
O        2.78594807      12.81145126      98.72834947
O       31.51328322      32.39483896      67.85062068
O       30.01074076      28.43249672     103.49685560
O        4.14779058       8.32842184      72.88644337
O        8.52409044      18.50313446      57.04908391
O        9.60804476      26.10089221      90.59323928
O       32.76454723      11.49428085      64.23749876
O       14.26946862      21.10232155     109.10127229
O        3.23599978      11.04564789     104.65620598
O       10.12422343      30.00744687      91.98648495
O       13.75229248       2.41074391     119.94179965
O       26.44761898       8.23203304      79.43355250
O        1.28889336       3.15194688     100.96332258
O        5.28040261       6.84845919      69.78711081
O       22.42884409      32.09156162      59.87337290
O       12.90157663      24.42646648     104.86222400
O        0.60305931       7.25164454      86.27226377
O       30.93384632      33.00350874      65.02732238
O       12.04987033      24.35647596     112.14696190
O        3.98604322      28.33427717      72.72189003
O       13.47820778       5.18249139      56.04147400
O       25.69234646      32.65686924      86.21518786
O       13.94029991       7.90531526      55.90154448
O       14.65851401       8.17840485     106.95846679
O       10.72167416       6.66534531      56.28871237
O        7.24557411       0.53778705     108.39576252
O       22.30824363       4.00959093     110.38847768
O       30.08191373      31.28084113      90.89178968
O       32.26288615      13.18295577     114.68639886
O        5.40499580      15.85654095      70.24841495
O       25.14381332       3.24922767     112.21804999
O       15.39886739      22.28956026      95.65056158
O        7.81517369      23.70643093     101.08881478
O       20.17696348       3.56425517      93.53795979
O        2.84085841      33.29434153      67.52218758
O       26.67013807      27.18418321     116.76998528
O       13.81537029      12.84740568      72.16481725
O        8.14389917      26.64981363      69.79894558
O        7.81872722      31.23945426     115.79078459
O       17.89524033      30.64560804      66.79139766
O       17.09314754      17.46835808      87.29932360
O       28.10621906      12.41725452      80.85499153
O       22.12986335       5.16853844      67.96631472
O        8.69943884      27.75869264      67.28383070
O       26.84264436       3.43819211      72.33693216
O       31.77040125      10.50178445     101.69010167
O       29.81492841      12.96309992      68.73643044
O       15.23304615      20.27642005      97.23686693
O        2.93190910       7.27201736      57.42342607
O       28.46635902      26.04173585      92.27310948
O        6.70279552      16.88471158      57.56823957
O       22.81928730      21.20309503     102.00996754
O       18.58601885       5.48194650      77.26053797
O       18.51546199      12.23347127     105.69854748
O        8.25540330      30.84612906      67.16107706
O        7.75770241      15.94847478      75.02985593
O       10.16887383      11.42457908     105.02898634
O       15.45951130       0.40090039     109.57955905
O       28.24310357       8.24567053      65.00232362
O        8.38326092      20.55001543      65.30749190
O        8.48426557      19.08075844      79.81538874
O        4.82051751      14.37186349      97.84224574
O       19.04762141       4.83059706     116.26052266
O       17.80946652       0.72067712      91.09415747
O       21.98680029       1.20596784      81.24088866
O        8.36053496       8.84858315     118.31518359
O       19.95788390      13.05159432     103.82849711
O       26.81176004      27.25156601      84.17892583
O        9.00237532      13.84807214      70.02116358
O       15.43307903      27.76130053      56.38883696
O       16.76050912       8.88819801      96.15626746
O       24.81391870      14.04018474      64.54962467
O        9.80807639      25.34438114     103.58470496
O       28.87542569       6.15060860      72.53757084
O       31.56347148       3.52609512      98.97202073
O       21.48818522       0.51726137      58.25423548
O       18.73603524      24.13927905      84.51858666
O       33.63828444      28.25136055      76.82578978
O       20.17560311      33.11473849     109.71999017
O        0.17782573      28.91516703      93.25093431
O       30.00142532       9.18019012     102.96048292
O       29.65946804      12.64542020     109.46729273
O       20.71901697      22.49854645     115.23913097
O        0.24689623       2.77974001      56.35158838
O        7.33348134      25.70200116      57.26469366
O       24.81958595      21.80513615      65.28684231
O       32.37671051      32.54063237      82.17505346
O       18.52987422      15.46114315     103.14540320
O       27.64606544      30.39700780      57.94560177
O        0.34679139      14.10747190     102.02049870
O       12.18993983      28.10693101     109.76772195
O        7.83513897       0.57069473     111.13705511
O       10.78905416      21.18025905      80.91788777
O        9.02876890      16.21913597      62.79370984
O       13.31099942      32.14435102      56.02924448
O       13.17113583       9.61318687      68.16497822
O       23.65620012       5.11421734      72.85470206
O       24.64318442      10.39768876     110.11251238
O       14.27753400      21.03367461      86.01209887
O       19.49428882      10.94096209     101.81321640
O        1.96030270       3.23592138     115.27026526
O       17.91159421      23.87282534     104.97070601
O       14.98381270       6.03217761      70.81917655
O       16.50440002      11.02248022      65.94155804
O       19.54088614      15.32278722     113.46728333
O       22.63052398       4.86596442      89.79195964
O       10.30530126      21.47622621      91.35329771
O        4.13616997       3.50296450      75.07995849
O        9.89735221      10.44028934      66.34192709
O        5.02610090       2.36167935     103.52914233
O       32.62623431       3.26220022     107.41169381
O       28.68791017       1.66400069      77.82092356
O       25.75598550       0.76644447     106.47339059
O       25.32720883      20.11174333     114.90545047
O       11.95870681      14.25225216     100.88239134
O       21.43301334      31.04496053      68.22074606
O        8.09368637      20.12266575      85.41178429
O       13.89586869      16.42523452      93.13426208
O       12.92915937      20.89627559      64.83883617
O        7.17506319      17.14674020      71.55328340
O       28.00442484       5.93899766     118.38077305
O        4.04509657      10.75393180     119.31536941
O        1.13572974      11.10575504     105.87395902
O       11.36391967       2.77092602     117.72178231
O       17.51053244      20.27720947      96.45293028
O       23.01792493       2.94562671     102.89277123
O       13.47660422       0.45011043      67.16692618
O       29.41954468      10.92339143     112.53890594
O       11.41713690      30.06065915      72.20920032
O       11.59281867      18.35976213      85.63314727
O       26.49560275       4.95249942      74.39636715
O        8.47500012      15.47886939      89.77032039
O        0.45338188      11.31726647      58.21620139
O        9.50559064      19.94303274     112.89877967
O       29.45648754      23.48073406      80.79370775
O        5.90848878      27.10060436     111.22237276
O       27.60956979       6.79895963     104.06464761
O       23.82027979      15.13274304      94.45973906
O        1.06527899       0.56827734     101.63879966
O       16.41809998      21.88959309      73.58224948
O       18.50612904      21.62418952      84.62264230
O       16.81935920      19.62925767      67.07347097
O        3.07934499      26.31680394     109.44364527
O       19.07207273      21.88179025     112.66804751
O        2.23149826      28.63036641      65.40968344
O       28.31456892       1.99871061      66.47885691
O       10.27054872      26.24718504      77.14943012
O       25.45185200      27.40296993      87.31552146
O        1.51761627      27.08140435     116.10039606
O       31.60579107      25.06395069      63.78838463
O       19.48706439      19.40750743     115.40859096
O       27.98462059      27.66949588     118.62838167
O        0.65260360       1.20874763      76.26712861
O       23.95532617      13.72991627     101.85045685
O       29.95634399       6.69654361      97.19243290
O       19.98377769      24.86901147      79.79001358
O       17.60943098       2.88754181     110.27214805
O       32.98612276       5.38467715      84.15349890
O       23.68694552      25.55273870      53.77179934
O       32.84729058       3.20354670      60.82023974
O       27.71830684      22.08929436      58.94588361
O       21.34077708      23.28598351     101.16404900
O       25.40498312      26.60771443      68.77680752
O        9.53785991      13.68343616      94.82654016
O       12.34642272       9.97036927      82.19450771
O       11.97779898       9.43984125     108.37981458
O       13.64406144      28.87740745      82.01203908
O        2.42562701      14.16132261      55.03010022
O       32.87066721       7.34143911      72.10332223
O       24.25063761       0.94390893      76.70017403
O       18.10102406      23.74338531      72.03010497
O       22.97195438      30.31592750      92.31136521
O        2.68040837      15.33798080      76.34927940
O        0.15066313       4.23012444      93.77585704
O       22.46621079      21.15894938      77.79841292
O        4.42791954      19.03322486      65.95988043
O        8.96788167      21.90875785      67.78440494
O       22.85464340       5.28583508      92.10705087
O       19.46895252      22.87097302      86.50592739
O       10.33221695      13.84449428      59.87139288
O       31.29792239      19.30564167     113.76242379
O       12.47636736       6.96959574     117.84405568
O       28.98658182      16.63264201     114.12292806
O        6.64441551       1.28710722      93.29012286
O       13.81587373       4.43165885      81.51192212
O       29.57903755      28.48877892     108.61975133
O       14.14300294       7.45631222      86.19815102
O        4.47674033       1.47122334      56.04122658
O       12.79281301      31.92626885      90.82472808
O        0.45129737      17.71511916      99.34352790
O       30.52050634      17.97389665      67.00001711
O       22.71573811      21.52136127      60.58436258
O       26.83481647       6.80323576      95.32910665
O       31.60128868      15.21364210      94.81159784
O       28.72983857       3.92512060      81.00821980
O       30.45531560       4.94096687      90.66899096
O       28.74423153      16.24866248      54.42203452
O       15.43023040      27.23579890      65.74290839
O       23.80546070       6.75958452      60.44840109
O       28.23297852      20.95141939     100.35410693
O        6.84272258      20.85458946      75.16823098
O       22.65642833      27.91341109      86.29164446
O        4.96577493      22.43047682      57.79133688
O        9.45689625      27.17035024     117.08090232
O        3.57906708      14.23976310      71.02193980
O        3.24760104      28.99283338     101.64101359
O       19.57954588      10.39447994      57.30055707
O       12.52263979      18.73143158     116.17675390
O        4.40965584      18.28733115     118.42353716
O       19.71017882       7.11598335      68.77886932
O       21.25197560      24.67239897     114.49383066
O       21.28176290       3.31927299      54.69527534
O       17.15169245      24.60894765      74.05684973
O       22.90439580      18.06890533      99.97255490
O       10.74457747       1.92074875      81.62527815
O        3.01529032      23.12672223      87.21892239
O       25.71099389       7.76946942      56.31216548
O        5.82557862       0.90556696     106.19178275
O        4.01004928      26.12422578      94.64253173
O       19.37962881      12.37305062      93.71453497
O       31.07069647      31.66220254     110.91344050
O       13.88575372      28.12212267      89.66986793
O        0.77869179      27.83292204      95.45735330
O       13.44508939      17.15554417     111.23814795
O       16.00683302      28.11712328      91.04916113
O       29.89279727      13.15137678      87.72328268
O       26.71191037      28.26852653      62.72173564
O       17.88674846      20.95853002      68.88470596
O       28.56509472      25.33258260      97.74945409
O       27.80960192      11.09217850     100.00101151
O       20.41250608      25.29691129      85.84852257
O       16.77653980      20.32298840     118.48857300
O       24.16162048       6.65645793     110.89451648
O       20.36948262      29.10925330     118.98052600
O        5.71124794      22.04284022     114.23425387
O        2.46597004      16.65043322      80.55079260
O        2.28812444      12.70725148      81.90603630
O       21.35376727      19.68606720      98.37805043
O        4.61412703      22.34836204     101.29813078
O       14.11075284      25.10275805     118.42998629
O        1.09695338      33.71393097      93.87046031
O        6.81815268      13.29581422      97.04935286
O        4.36811450      13.29567058     105.53238357
O       10.70498441      11.12358805     111.83642466
O       10.80895871      24.48514923      72.36584446
O        4.37827039      30.45671754      62.24890811
O       14.91152179       7.81669826      83.83162820
O        0.56329890       5.25888412      74.92944789
O       27.64299305      28.13472854      99.67282296
O       11.73221192      11.68089299     100.67136848
O        5.90215536      29.04430730     118.68607133
O        6.17885511      17.03945352      94.15590776
O       14.18077874      29.33286165     102.80701511
O       22.49946114      29.58640736      62.53715686
O        1.77787104      28.34782741     103.53629009
O       23.37519930       0.07038639      73.61261301
O       29.66129254      19.31920543      72.20445219
O       10.70324383       7.76099270      81.93564588
O       17.38865680      29.47576558     102.44597482
O       27.91183932      -0.01222901      85.20694631
O        0.78545818      32.21111950      84.13204227
O       21.05959941       0.86242625      64.30543646
O       24.36594065      22.98398188     109.86193059
O        9.91001237      14.72209334      85.88102334
O       26.68811067      23.17490021     102.22205450
O       26.04225135      14.09143932      67.96752143
O       21.34510622      15.53850525      57.33489232
O       14.97419536      27.41556757     119.41055313
O       26.78734361      27.04609291     109.08890490
O        0.30810858      30.32466732     108.87821409
O       27.33215605       1.25049785      57.09536463
O       25.09320778      13.75270683     108.35834180
O       33.26434579      29.36438720     102.63373479
O        0.30030563      17.55276862      91.16745621
O       13.97426854      19.12239101     113.84817612
O       30.73338180       2.18985922      68.49389058
O       33.39452320      26.28455956      65.03390611
O        0.10880574       7.94799336     115.89077819
O       14.00816316      33.65826147      69.66724050
O       23.36227787      32.85189124      80.04876374
O        7.50567260       9.74272963      60.64457574
O       30.43787106      20.62889115      99.62693996
O       30.00041553      29.00811903      69.66336182
O        8.95274234      25.81742405      95.93521232
O       15.95119148       1.87697774      92.25173807
O        7.81921886       6.46314276     111.62188585
O       20.09217024      29.98365456      97.36831095
O       27.06488715      18.11654300      66.68007926
O       22.15786197       1.82773834      97.92384581
O       25.44859401      30.44601822      89.25738915
O        3.05424325      23.01264832     114.97906961
O       11.76215464      29.11621811      83.60305025
O       18.08492722      23.81545568     119.49672370
O        5.27603749      30.43360706     114.51087218
O       29.75896121      32.64022925     119.38554687
O       12.57933055       0.54104414      99.07518800
O        8.62196392       5.42250374      56.16621126
O       12.22919357      27.06457606      69.76288846
O       26.98581082       7.77270958     100.17469631
O       19.44822602      24.64795703     103.30186186
O       31.13855945      24.19887095     110.11631228
O        6.62221711       0.63173186      58.76929063
O       20.96380624      -0.01116042      92.97684070
O       16.73471337      29.22268534     112.46484573
O       27.36410012      31.20134542      83.29729131
O       28.31446179      10.68580609      87.98099593
O       15.31697377      30.87601765      89.74051630
O       17.34592352       7.15675604      69.30948842
O       14.66729182      23.59657689     108.49132137
O       32.97313410      31.99325801      57.04893818
O        8.29725785      19.06466905     108.77165195
O        0.19408210      22.75254475      71.64922446
O        5.56089915      14.69356488      57.98614496
O        8.47748917      24.42951017      77.25230870
O       17.77714574      19.71063562     109.07185944
O       19.81419957      26.99908127      81.50078317
O       12.18615286      19.45389129      68.56678288
O       21.21932075      26.28561113      78.11448444
O       24.61030760      20.05327433      67.00069232
O       27.76878625      32.41107466     102.93669948
O       25.84048704       5.83551764      87.39898612
O       23.56005164      30.44807741      98.99681668
O       23.93516306      33.18359871      70.03934302
O       18.86534254      30.78475646      64.24310945
O       18.47128209      14.51309938      82.58114800
O       13.35462755      16.36677232      61.45577883
O       25.29350246      24.92201615      66.49721783
O       15.98849003       4.42618555      94.32904592
O       18.37367468      16.25598294      98.36742000
O       22.76707863      33.00340914      96.07577841
O       15.04011942      23.34366197      64.70667172
O        3.55339094       1.05665344      93.11471757
O       16.86184012      22.39411456      61.49826486
O        8.46024466       4.44548266     114.59020846
O        3.80101833      11.91635696      89.40217294
O       32.42756520      21.72607920      78.17867256
O        2.51583210      22.50350950      80.99729100
O       29.64145660      14.30982073     113.19906890
O       15.29161487      17.41104313      99.43951279
O       28.24761188       8.99871119     111.78513304
O        7.83015846      27.00578728      82.21333913
O       26.36502044      20.82606899      80.33127630
O       23.47624708       6.54767864      84.89506030
O        1.72165576      30.04053457      94.77898484
O       21.37704067      16.09752973     112.27866277
O       10.78121829      29.68329453      53.99245779
O       30.24197774       1.06368698      54.53355851
O       13.80127046      23.12714105      84.31692811
O       10.55258432       2.45100318      61.04214152
O       20.23420937      20.46130208     119.70328594
O        8.36172313       9.48089433      85.31790550
O       28.51374899      11.07951531      69.26966886
O       14.20356552      20.66515998      62.40068005
O       18.76450958       4.15774157     107.55536547
O        5.24852728       7.39368559     104.44597754
O        1.09288147      27.00547649     105.18247371
O       30.59961336      28.41116794      76.37150437
O       14.52467450      22.96549123      59.78939428
O        8.18735828      25.62264550     111.85863630
O        6.44992310      33.15155226      79.59096052
O       27.41670524       4.89002510      62.01948650
O       10.03567627       3.42778428      72.10416577
O       23.48180779      23.98316411     107.70072399
O       15.74511555      23.23299504     115.76613011
O       31.72907609      24.55562080      61.36374309
O        6.53158091       7.90841632      59.52443487
O        8.04693123      24.81332187      93.25055985
O       10.91789636      17.30271034     102.20018041
O       26.67263738      23.54836034     107.76041049
O        6.61291083      33.13355385      75.14049181
O       22.28466855      33.18626565      77.02315364
O       12.14232165      14.14880785      70.64529208
O       23.33381796      24.79443975      94.88660595
O        8.05737534       4.61841771     117.03258475
O       19.19395297       3.65737201     104.90320165
O       20.71603442       8.95114520     102.33404295
O       32.86250090       9.10259046      77.51533067
O       14.23352324       0.99236198      55.52030781
O       21.76755690       7.28112529      81.18583119
O       29.66384380      29.84947473     105.53076555
O       30.99347611       6.74862478     114.87875216
O       15.35134724      13.68290190      66.83905268
O       20.12945604       2.87001968      68.32536218
O       31.98542892      29.56925898     106.15141306
O       23.30061441      17.33525124      87.72643035
O        1.08627062      15.55573037      54.08116224
O       18.20977742      17.24531579     109.53939663
O       10.84811548      10.87908480      62.78685973
O       21.82469745       0.59618310     101.42615051
O        2.39791628      11.82052297     116.79341287
O       31.40416197       1.09546355      88.94038984
O       25.03425514      18.12242144      82.22651107
O       21.22462633      21.92607457      69.19135888
