202
Lattice="8.38800558 0.0 0.0 0.0 8.38800558 0.0 0.0 0.0 26.0" Properties=species:S:1:pos:R:3 pbc="T T T"
H        4.68616399       6.63301197      20.57358226
H        5.05859331       5.16390655      20.49271535
H        4.94185062       4.44108952      10.90197045
H        6.29028477       3.73993522      10.85569146
H        4.49792842       4.00838407      15.11448170
H        3.13546485       4.47155026      14.80733456
H        4.29373562       6.37376346      22.51720801
H        4.84934571       5.58362476      23.63289953
H        5.94369292       8.62473040      16.89441067
H        5.88008117       7.48146858      17.87884151
H        2.84828804       6.40682718      24.25527833
H        2.38960175       5.28132594      25.06259061
H        0.78165855       2.85573547      13.37242153
H        1.93900229       2.06981254      12.93298822
H        8.43274971       1.21347529      24.12799956
H        8.02106484       0.70665056      22.79559381
H        6.28537630       3.01749652      19.91117669
H        6.98196256       3.98945773      20.76861757
H        7.83407184       0.49905004      11.86878365
H        8.04842281      -0.77792498      11.21918040
H        7.65703279       1.43467852      18.64379736
H        9.02180170       1.92912854      18.39226847
H        3.76315050       1.47952801      23.60644863
H        2.40996089       1.25824360      23.05216591
H        7.37363733       5.61393482      15.21889465
H        7.59736101       4.22419098      14.79065995
H        0.17475406       5.03547359      12.34278408
H        1.64648996       4.93414688      12.36289847
H        7.39176659       1.56189751      16.44637641
H        6.67103688       2.13889650      15.26832687
H        1.67368256       7.43895438      11.31282979
H        2.64639552       6.27726338      11.21065012
H        6.71971486       4.15985838      23.08032912
H        6.65295620       4.97002603      24.27431558
H        1.83985471       3.28378170      19.98456031
H        2.70393766       2.41287001      19.12266691
H        1.40115172       7.71032035      25.26788638
H        1.72156281       9.13078941      24.95374746
H        5.12831357       6.68445365      14.88088942
H        5.22704685       5.47948636      14.04866821
H        4.90883604       0.56790643      21.77938205
H        3.67771249       0.15519681      21.06821346
H        1.16075039       4.77901017      16.08623769
H        1.93244892       3.54098874      16.39355980
H        6.29283548       3.70830583      12.97436953
H        6.74318226       2.33499121      13.30186177
H        6.94497597       6.50753369      12.97445671
H        6.73382438       5.68945905      11.75716247
H        6.03313771       5.44982759      17.52116863
H        6.51868066       5.17454572      18.87385025
H        0.82198768       7.57845234      16.02496867
H        0.59846924       8.44986619      17.23024337
H        2.65613693       4.23002856       9.83890104
H        3.17037109       3.81479360      11.17469153
H       -0.26102866       6.29921557      18.82912009
H        1.04139736       6.91870541      18.52581084
H        3.81013210       3.08744207      12.98973843
H        3.84389030       1.66131761      12.51996719
H        1.99195107       1.84135258      15.11095433
H        2.07148547       0.85575182      16.22000602
H        1.00812329       7.32064930      13.52502547
H        0.76905598       8.73138729      13.95018076
H        5.91041133       0.80639773      20.13435021
H        7.26227295       0.70471017      20.71112638
H        5.48334831       8.09374657      25.85299305
H        5.29502149       7.54325960      24.46712648
H        2.80042582       5.12297358      20.91858812
H        1.50784652       5.46733019      20.24634712
H        4.12935842       7.61843988      16.47494244
H        2.80784128       7.05863942      16.07497254
H        8.74845205       6.20188178      24.40471803
H        7.60500833       7.14162137      24.64253731
H        4.63159322       3.64287462      17.51778276
H        3.75880477       4.68721751      16.91383137
H        3.37885683      -0.55119712      12.74756338
H        3.76534586      -0.25046810      14.14933603
H        3.50274362       1.94865774      17.26735073
H        4.54416056       1.27625181      18.08942461
H        8.42437466       3.19317186      11.19398897
H        8.09050506       1.85717886      10.57810081
H        1.24577391       0.07407621      21.50770272
H        1.84950558       1.20993160      20.74069852
H        7.89290443       6.98396495      22.36649449
H        8.27487755       7.07655428      20.91234606
H        5.78806439       1.05668551      23.76531033
H        5.81312232       2.44346875      23.23712381
H        6.75015267       0.44304987      14.02751996
H        5.64729892       0.32628841      13.03496339
H        0.57504315       4.16489733      21.77611394
H       -0.12411210       3.04405739      22.49295078
H        3.10108134       3.04994351      24.68208970
H        4.39119673       3.81617086      24.70953642
Mg       0.00000000       0.00000000       8.02100420
Mg      -0.00000000       2.09700139       1.73000002
Mg       2.09700139      -0.00000000       1.73000002
Mg       2.09700139       2.09700139       8.02100420
Mg       4.19400279      -0.00000000       8.02100420
Mg       4.19400279       2.09700139       1.73000002
Mg       6.29100419      -0.00000000       1.73000002
Mg       6.29100419       2.09700139       8.02100420
Mg      -0.00000000       4.19400279       8.02100420
Mg      -0.00000000       6.29100419       1.73000002
Mg       2.09700139       4.19400279       1.73000002
Mg       2.09700139       6.29100419       8.02100420
Mg       4.19400279       4.19400279       8.02100420
Mg       4.19400279       6.29100419       1.73000002
Mg       6.29100419       4.19400279       1.73000002
Mg       6.29100419       6.29100419       8.02100420
Mg       0.00000000       0.00000000       3.82700141
Mg      -0.00000000       2.09700139       5.92400281
Mg       2.09700139      -0.00000000       5.92400281
Mg       2.09700139       2.09700139       3.82700141
Mg       4.19400279      -0.00000000       3.82700141
Mg       4.19400279       2.09700139       5.92400281
Mg       6.29100419      -0.00000000       5.92400281
Mg       6.29100419       2.09700139       3.82700141
Mg      -0.00000000       4.19400279       3.82700141
Mg      -0.00000000       6.29100419       5.92400281
Mg       2.09700139       4.19400279       5.92400281
Mg       2.09700139       6.29100419       3.82700141
Mg       4.19400279       4.19400279       3.82700141
Mg       4.19400279       6.29100419       5.92400281
Mg       6.29100419       4.19400279       5.92400281
Mg       6.29100419       6.29100419       3.82700141
O        0.00000000       0.00000000       1.73000002
O       -0.00000000       2.09700139       8.02100420
O        2.09700139      -0.00000000       8.02100420
O        2.09700139       2.09700139       1.73000002
O        4.19400279      -0.00000000       1.73000002
O        4.19400279       2.09700139       8.02100420
O        6.29100419      -0.00000000       8.02100420
O        6.29100419       2.09700139       1.73000002
O       -0.00000000       4.19400279       1.73000002
O       -0.00000000       6.29100419       8.02100420
O        2.09700139       4.19400279       8.02100420
O        2.09700139       6.29100419       1.73000002
O        4.19400279       4.19400279       1.73000002
O        4.19400279       6.29100419       8.02100420
O        6.29100419       4.19400279       8.02100420
O        6.29100419       6.29100419       1.73000002
O        0.00000000       0.00000000       5.92400281
O       -0.00000000       2.09700139       3.82700141
O        2.09700139      -0.00000000       3.82700141
O        2.09700139       2.09700139       5.92400281
O        4.19400279      -0.00000000       5.92400281
O        4.19400279       2.09700139       3.82700141
O        6.29100419      -0.00000000       3.82700141
O        6.29100419       2.09700139       5.92400281
O       -0.00000000       4.19400279       5.92400281
O       -0.00000000       6.29100419       3.82700141
O        2.09700139       4.19400279       3.82700141
O        2.09700139       6.29100419       5.92400281
O        4.19400279       4.19400279       5.92400281
O        4.19400279       6.29100419       3.82700141
O        6.29100419       4.19400279       3.82700141
O        6.29100419       6.29100419       5.92400281
O        4.36794754       5.75308218      20.85012789
O        5.78570234       4.39338912      11.38333267
O        3.94118142       4.19022181      14.33473948
O        4.40485001       6.43986443      23.48466357
O        5.33125530       8.21368276      17.53666489
O        2.06602626       6.16731413      24.79035789
O        1.20865918       2.00012598      13.57714678
O        8.13923395       1.55167598      23.25888094
O        6.31481509       3.98356084      20.05104268
O        8.41010733       0.12873354      11.16868824
O        8.29062875       1.50241495      17.89915077
O        2.83142834       1.51353287      23.89577465
O        7.99486176       4.88562944      15.38643200
O        0.87205028       4.35043417      12.34405507
O        6.74240542       1.30414686      15.76231335
O        2.24705306       6.87948838      11.86578295
O        6.09633491       4.30221083      23.82199795
O        1.81477822       2.41774851      19.53009104
O        0.95489247       8.57188133      25.18285557
O        5.78924616       6.22575221      14.32896216
O        4.64682144       0.04627970      20.99360920
O        2.07515054       4.50145185      16.31328286
O        6.69655624       3.21892151      13.71656751
O        7.41357166       6.27689241      12.14645103
O        6.56542638       5.89610879      18.21322339
O        1.19377487       7.73882783      16.91955754
O        3.16487130       4.59017153      10.57386475
O        0.56130141       6.55396550      19.29497261
O        3.49686102       2.53258532      12.24455382
O        2.34972553       1.76452730      16.01698328
O        0.76157136       7.82591470      14.31386327
O        6.78601415       1.23562599      20.04860894
O        5.84771148       8.17652545      24.96689956
O        1.89697608       4.76397998      20.80269659
O        3.66656671       7.29198401      15.67793424
O        7.81267675       6.32646646      24.15061679
O        4.70449791       4.44754606      16.96757236
O        3.94000110       0.07728088      13.24427406
O        4.03806557       2.11299273      18.07004780
O        7.74644658       2.76424587      10.64596164
O        2.07741052       0.57563979      21.44899263
O        8.06372612       7.65304058      21.67317185
O        5.32995836       1.61111655      23.09866658
O        6.57223282       0.63896558      13.08791385
O       -0.32593047       3.89015873      22.03771278
O        3.45932902       3.91319635      24.95677931
